 # Version information for this restart file 
 # current date 2024-03-25 06:00:23.002
 # current working dir /WORK/junli_work/libin/1_U28/3_try
 # Program compiled at                              Sun Aug 13 14:10:33 CST 2023
 # Program compiled on                                                   ibcln01
 # Program compiled for                                                    local
 # Source code revision number                                       git:d8d7100
 &GLOBAL
   PRINT_LEVEL  LOW
   PROJECT_NAME U28_3_try
   RUN_TYPE  GEO_OPT
 &END GLOBAL
 &MOTION
   &GEO_OPT
     OPTIMIZER  BFGS
     MAX_ITER  200
     STEP_START_VAL  200
     &BFGS
       TRUST_RADIUS     2.5000000000000000E-01
     &END BFGS
   &END GEO_OPT
   &PRINT
     &TRAJECTORY  SILENT
       FORMAT  XMOL
       &EACH
         GEO_OPT  1
       &END EACH
     &END TRAJECTORY
     &CELL  ON
     &END CELL
     &RESTART  SILENT
       BACKUP_COPIES  0
       &EACH
         GEO_OPT  1
       &END EACH
     &END RESTART
     &RESTART_HISTORY  OFF
     &END RESTART_HISTORY
   &END PRINT
 &END MOTION
 &FORCE_EVAL
   METHOD  QS
   STRESS_TENSOR  ANALYTICAL
   &DFT
     BASIS_SET_FILE_NAME BASIS_MOLOPT
     POTENTIAL_FILE_NAME GTH_POTENTIALS
     MULTIPLICITY  1
     CHARGE  0
     &SCF
       MAX_SCF  50
       EPS_SCF     1.0000000000000001E-05
       SCF_GUESS  RESTART
       &OT  T
         MINIMIZER  DIIS
         PRECONDITIONER  FULL_SINGLE
       &END OT
       &OUTER_SCF  T
         EPS_SCF     1.0000000000000001E-05
         MAX_SCF  10
       &END OUTER_SCF
       &PRINT
         &RESTART  ON
         &END RESTART
       &END PRINT
     &END SCF
     &QS
       EPS_DEFAULT     1.0000000000000000E-10
       EXTRAPOLATION  ASPC
       METHOD  GPW
     &END QS
     &MGRID
       CUTOFF     5.1000000000000000E+02
     &END MGRID
     &XC
       DENSITY_CUTOFF     1.0000000000000000E-10
       GRADIENT_CUTOFF     1.0000000000000000E-10
       TAU_CUTOFF     1.0000000000000000E-10
       &XC_FUNCTIONAL  NO_SHORTCUT
         &PBE  T
         &END PBE
       &END XC_FUNCTIONAL
       &VDW_POTENTIAL
         POTENTIAL_TYPE  PAIR_POTENTIAL
         &PAIR_POTENTIAL
           R_CUTOFF     1.5000000000000002E+01
           TYPE  DFTD3(BJ)
           PARAMETER_FILE_NAME dftd3.dat
           REFERENCE_FUNCTIONAL PBE
         &END PAIR_POTENTIAL
       &END VDW_POTENTIAL
     &END XC
     &POISSON
       PERIODIC  XYZ
     &END POISSON
   &END DFT
   &SUBSYS
     &CELL
       A     2.5000000000000004E+01    0.0000000000000000E+00    0.0000000000000000E+00
       B     0.0000000000000000E+00    2.5000000000000004E+01    0.0000000000000000E+00
       C     0.0000000000000000E+00    0.0000000000000000E+00    2.5000000000000004E+01
       MULTIPLE_UNIT_CELL  1 1 1
     &END CELL
     &COORD
U    2.5920674072248988E+00    5.7165329416803408E+00   -3.7255419546788944E+00
U   -1.6794980682854268E+00    5.8683098958571511E+00   -3.7047778321263971E+00
U    3.6289933559427712E+00    2.1872222323790287E+00    6.0223675717940495E+00
U    1.0381336934189900E-01   -1.0215131887074242E-03   -7.2759301838230570E+00
U    5.1385362793806910E-01   -4.0210746191319409E+00   -5.9122044818438333E+00
U   -2.5723577098649848E+00   -5.8634177997729200E+00    3.6324384576901800E+00
U   -6.2324271811465415E-01   -7.3617581654922661E+00   -8.3470710225321560E-03
U    6.8128838109642436E+00    1.8544397434806257E+00   -2.2285016475279463E-02
U   -3.2388975609624295E+00    2.3496196931197857E+00   -5.8804360985093709E+00
U    2.4682150379915275E+00    5.7019872291594451E+00    3.6963536581173484E+00
U   -1.9767176737275145E+00    5.5385936412673624E+00    4.0074273308562560E+00
U   -2.5722079022644655E+00   -5.8233028686949186E+00   -3.6029986957674258E+00
U    5.6858524349452107E-02    1.6640162808558814E-02    7.2061407294645354E+00
U   -5.9397528347057547E+00   -3.1265735858302581E+00    2.4743965682787041E+00
U    5.9428381715435208E+00   -7.6150917387161421E-01   -3.7167457556839238E+00
U   -3.5919885326202734E+00    6.1328405983783858E+00    8.5281274934135565E-02
U   -6.3258085908684194E+00    6.1916847885020698E-01   -3.5188540978040885E+00
U   -3.1597691555558449E+00    2.6678551208494228E+00    5.7963696079127489E+00
U   -5.9909308245666351E+00   -3.5316341373565137E+00   -2.1834527273672926E+00
U    3.7047243803905467E+00   -6.2425722390864138E+00   -1.2676773929040163E-02
U    4.3216773602944141E+00   -3.9457180916707375E+00    3.6173002276184203E+00
U    3.6370585432810292E+00    2.1929245389232470E+00   -6.1431724572386068E+00
U    5.0600865850028924E+00    4.9342722237261922E+00   -2.8525280759003442E-03
U   -6.6694226761636060E+00    3.0223457081969936E+00    7.3079542495010211E-02
U    5.9444455336510806E+00   -8.0482446696840360E-01    3.6534260578157567E+00
U   -6.1894675407888737E+00    1.7146005547503512E-01    3.6183481771696648E+00
U    4.3221663836436894E+00   -3.9027442659663958E+00   -3.5889542316941725E+00
U    5.3091900435201278E-01   -4.0520041142134779E+00    5.9398576853298346E+00
O    5.9714516635224300E+00    3.4105466631338652E+00    1.2462284476787826E+00
O    3.2541163576085612E+00    7.1503232075647700E+00   -4.5818845249143543E+00
O   -3.8828791064378905E+00    3.1832272055461512E+00   -7.4341182177684102E+00
O   -5.5549391415365497E+00    4.9991586547308975E+00    7.7189211076140718E-01
O    4.4349686178778498E+00   -2.6871664831086273E-01    2.6939133291970809E+00
O   -2.3595335961804969E+00   -7.0818363935008142E+00    1.5906844975366974E+00
O   -4.6454700409846872E+00   -4.6482573585282196E+00    3.8938212462445612E+00
O   -6.6750480966570311E+00   -3.1909759027461626E+00    7.6548344005773261E-02
O    4.2188709899670673E-01    5.9742260456083827E+00   -4.6473994873223416E+00
O   -7.2973817758652544E+00    1.4009830316675658E+00   -1.5228455788129138E+00
O    6.0443287937875985E+00    3.4760683383029023E+00   -1.2522903244622312E+00
O   -3.8002820154968053E+00    3.4064547627660220E+00    7.4300799201445793E+00
O    3.1202812009172005E+00    7.1627061102101655E+00    4.5159404237992398E+00
O   -5.5556588663805595E+00    5.0004074277879829E+00   -7.0462992699435212E-01
O   -4.6569572806144590E+00   -4.6438123753991487E+00   -3.8072913330082798E+00
O   -6.9276281770661008E-01   -9.1580511979905346E+00   -1.7394892719481095E-03
O   -7.4831829041582418E+00   -3.8877733168760757E+00    3.0538468668501384E+00
O    1.9300392000499742E+00    4.2553997580619161E+00   -2.7805284592235244E+00
O   -6.7386319554153999E+00    2.5676727929129028E+00   -2.2258701488238875E+00
O    3.4758774429154726E-01    5.9758368888924869E+00    4.6979535541223569E+00
O   -7.2271397455195583E+00    1.5943396285656570E+00    1.8743699588245943E+00
O   -7.5062578687437034E+00   -4.3797890782013367E+00   -2.6426996671845973E+00
O   -4.7286455667783116E+00   -5.3469715571092058E+00    2.6897432389597955E+00
O   -5.4850259592998907E-01   -5.4951931432282901E+00   -1.3025653293825721E-03
O    5.0146729530137764E+00   -5.3428293147218051E+00    1.7505436425552381E+00
O    7.0825728851224756E+00    1.0275000091560411E+00   -2.3556980251406148E+00
O    3.0437420969629740E+00   -3.0607963476838438E+00    2.5637749937718990E+00
O    4.2979030520224343E-01    6.7923964314935779E+00   -3.4204900829139122E+00
O   -2.5791636033466352E+00    4.5818754758887499E+00    1.4113342355866072E-02
O    4.5137176229373468E+00    2.7088395083464474E+00   -7.6326756337387778E+00
O    1.8027189255725211E+00    4.2342008276482233E+00    2.7691472883024448E+00
O   -6.5897245402494216E+00    2.7233775303941536E+00    2.4305271856387494E+00
O   -4.6573579269240106E+00   -5.4168232196680082E+00   -2.5759651078786634E+00
O    5.0604123857195944E+00   -5.2862420517426312E+00   -1.7404934824827965E+00
O    3.0493174726201207E+00   -3.0466096819452675E+00   -2.5023814794464072E+00
O    5.6271353138001610E+00    1.4493076133707532E+00   -5.0560925025082462E+00
O    7.4874792666717855E+00   -1.3162099933178235E+00   -4.5857700802943198E+00
O    5.9043992097901210E+00   -2.6990013819593086E+00   -2.6604959805096575E+00
O    7.0788274144119958E+00    9.6304892883101278E-01    2.2888375956261195E+00
O    4.5174395963188703E+00    2.7089992151224389E+00    7.5000684627371816E+00
O    2.7071427915960983E-01    6.6711136049026685E+00    3.4775119709344513E+00
O   -6.1494056282034448E-01   -5.8241271268748633E+00    4.9304662800199681E+00
O    5.4963738813327438E+00   -4.9338632065025525E+00    4.7232342450763989E+00
O    2.1256407369833522E-01   -2.9859348817724123E+00    4.4538379017423653E+00
O   -1.9784243171051925E+00    4.3242208415864436E+00   -5.5423899632577633E+00
O   -1.3258991494384449E+00    1.8803764580032742E+00   -7.1569199826184740E+00
O    5.6204205815195563E+00    1.3981295987975508E+00    4.9312073325527459E+00
O    5.9057913099519093E+00   -2.7687775080741575E+00    2.6470772697292708E+00
O    7.5005439627132526E+00   -1.3213315226293056E+00    4.5192887968428552E+00
O   -6.0106797274176205E-01   -5.7642990912201064E+00   -4.8723732617513322E+00
O    1.9762498202314460E-01   -2.9151032012209064E+00   -4.4519670557585513E+00
O    5.4904371006583981E+00   -4.8663491755624593E+00   -4.7233360743270820E+00
O    4.6506220057212246E+00   -7.7773302108637390E+00   -1.2847856778317984E-03
O    8.5533905927453837E+00    2.3552255281844867E+00   -3.1859691370816039E-04
O   -3.5610912668170145E+00    6.2003288409419053E+00   -2.2952420624997902E+00
O   -1.1785794137112129E+00    4.3917313306619592E+00   -2.6986926164494052E+00
O    5.1288130485058216E+00    1.0480222173519571E+00   -6.1293406202943108E-02
O   -1.6015323273952748E+00    4.2310282104791606E+00    5.7468137928984069E+00
O   -1.3249494261055463E+00    1.8707464435988375E+00    7.0965653283637131E+00
O    1.3518432877442293E-01    3.9190433255007553E-03   -5.4251907620997430E+00
O    1.1082048112250273E+00   -2.0899814549984908E+00    7.2171488057938529E+00
O    2.8366165838987385E+00   -3.9588393036869571E+00    5.5453280952200403E+00
O    3.5398469441598999E+00    6.3925129076686176E+00   -1.5976586344185477E+00
O    5.0775922618231721E+00    3.5431706094399446E-01   -5.7683747837480972E+00
O   -3.6239420112965823E+00    6.1238310671315155E+00    2.3704872164307806E+00
O   -1.3064441424928845E+00    4.2394159615570839E+00    2.8490165779159216E+00
O    1.1219061872701139E+00   -2.0997315888828889E+00   -7.2839807653226805E+00
O    2.7913303022932068E+00   -3.8914758495401998E+00   -5.4836731822064939E+00
O    9.7565550456501093E-01   -5.1361030755416941E+00    7.3546058041941711E+00
O    7.0360098927077508E-02   -6.5602894110811730E-03    5.3514212282038836E+00
O   -3.2036700352011591E+00   -7.2928802309804697E+00    4.5168023244726303E+00
O   -2.4307219875708044E+00    7.0157897547295542E+00   -1.8060631298095022E+00
O   -4.6451581768467429E+00    7.6426601483167769E+00    5.5803898370459577E-02
O    5.0746981622092440E+00    3.4215082728058066E-01    5.6964002897578458E+00
O    3.4010653359873393E+00    6.3329877716670033E+00    1.5254953108293079E+00
O   -1.2965007521829688E-01    1.3053106197064862E-01   -9.1015054137332410E+00
O    9.7896230573987597E-01   -5.1386165106841242E+00   -7.2927160200308689E+00
O   -3.1988746323490180E+00   -7.2389409627402301E+00   -4.5130319543312964E+00
O   -5.4802787672094242E+00   -1.8064592431586779E+00    4.1618088387562118E+00
O    1.6537884538975258E+00   -7.2305280864647710E+00   -7.5001594103361702E-01
O    7.2227907452807401E+00   -1.9875604749229608E-01    1.5841712953818385E+00
O    4.3226267157564910E+00    5.5600403895312818E+00    2.2258155351197981E+00
O   -2.4480517414235683E+00    6.8834379475453522E+00    2.0042400655844830E+00
O   -6.2617969745901263E+00   -1.7487651370692054E+00   -3.7469323312151763E+00
O    1.6589769766551439E+00   -7.2333747295813833E+00    6.9545195286565031E-01
O   -1.4030236131632934E-01    1.3605468515816854E-01    9.0340601885297520E+00
O   -1.6003788095765001E+00   -5.0005502648023885E+00    5.6335136809012880E+00
O   -4.3087108589624208E+00   -2.5679862754070180E+00    1.7358272584590355E+00
O    2.7709487347827588E+00   -4.6545290675675606E+00   -1.8696424728325922E-03
O   -3.2706293514641676E+00    4.4444283002607321E+00   -4.7986978107278278E+00
O   -5.0736566054979155E+00    1.0093116512588969E+00   -5.5628653030461717E+00
O    2.7033713940811284E+00    1.5980842241986515E+00   -4.6469733960796082E+00
O   -4.9912757015332128E+00    2.2109807053753547E+00    1.3380347131124473E-02
O    7.2260954101837154E+00   -1.3882706971874223E-01   -1.6611778860453370E+00
O    4.4726866663552913E+00    5.6250171718886213E+00   -2.2888854093857538E+00
O   -1.5980831622918079E+00   -4.9880650441400300E+00   -5.6237888971470467E+00
O   -4.4347958236035820E+00   -2.6384433725365670E+00   -1.6663000504741725E+00
O    2.3007714432953530E+00   -5.0672278862439173E+00    4.7160608757703253E+00
O   -2.2242565994135806E+00    6.8715854487791828E-01   -7.2197672177418548E+00
O   -4.6993321001866128E+00    4.2536031139561259E-01   -2.6358884564851208E+00
O    3.4898147609694865E+00    3.8835537067706554E+00   -6.3848399927485061E-02
O    2.7083854315472751E+00    1.5997059241611238E+00    4.5162004967861096E+00
O   -3.7545612441661764E+00    4.2290525480773331E+00    4.3827268971405049E+00
O   -4.9274273950104659E+00    9.0303034950113148E-01    5.6873811856611960E+00
O    2.2886330694540238E+00   -5.0082557884081051E+00   -4.6508998132172890E+00
O   -1.0984498977785395E+00   -7.1562944513922675E+00   -2.3038234155232864E+00
O   -5.9761037049557091E+00   -4.3926573059712251E+00    7.4118160195974767E-02
O    6.3805724632892318E+00    6.1786927043393698E+00    6.5761708942150998E-02
O    2.7000070641464911E+00    4.3084924701649765E+00   -5.6291633872939189E+00
O    3.9680385373839790E+00    4.1794499775401768E+00   -4.9209612200575776E+00
O   -2.2339853617949648E+00    6.9671978340454466E-01    7.0793522922411967E+00
O   -4.5758700013868809E+00    4.1221904765919609E-01    2.7010418293132186E+00
O   -1.1029352500311083E+00   -7.1586248779042183E+00    2.3017499979621880E+00
O   -3.4814243483655327E-01   -2.3037694146607537E+00    7.2939078630383589E+00
O   -6.8040651031539694E+00   -1.1864243733729525E+00    2.0767410917634828E+00
O   -1.9496644918599375E+00   -4.3796079918230246E+00    2.7162470634920450E+00
O   -2.4286358051848080E+00    1.6145237029373272E+00   -4.3791127066282991E+00
O   -7.8574582479384310E+00    7.6776990576463899E-01   -4.4459587726233432E+00
O    2.6481002718781581E+00    4.3098766848820356E+00    5.6126805660429007E+00
O    3.8947118564116714E+00    4.2355994650977218E+00    4.8643382343820427E+00
O   -3.3571493987980172E-01   -2.3001160839752632E+00   -7.3584851691893789E+00
O   -1.9501453121523165E+00   -4.3111994177734392E+00   -2.7047536194897597E+00
O   -6.9467709811480125E+00   -1.3979100242640883E+00   -2.5073323027778009E+00
O    3.9565922597360021E+00   -5.9691539387924237E+00   -2.3608636422376463E+00
O   -2.2991376668454597E+00    7.1634754997203505E+00   -4.8606074757434090E+00
O    2.3786240340650968E+00    5.4293102736309984E-01   -7.3652946776238783E+00
O    1.6086272503039170E+00    1.7963756597447131E+00   -7.3569155991826367E+00
O   -5.2819385514556050E+00    2.2928841608295141E+00   -4.8688398901230787E+00
O    4.5881733301568053E+00   -2.0866419569484025E+00   -4.7919896019326940E+00
O   -2.4122368821101769E+00    1.7321354204503345E+00    4.3576186272324966E+00
O   -7.7227690340364337E+00    1.4855584121221671E-01    4.5899103936492036E+00
O    3.8883593472127962E+00   -5.9830818236516032E+00    2.3566130942833325E+00
O    4.4425117922153703E+00   -1.9929797826900381E-01   -2.7619304089721068E+00
O   -8.2586296572176821E+00    3.8902971736150995E+00    1.3652116392260819E-01
O    2.3681910235170860E+00    5.4049291841725466E-01    7.2263540479762733E+00
O    1.6114828117713480E+00    1.7996917006278990E+00    7.2190779821399946E+00
O   -2.6228654448549777E+00    6.8638677305901910E+00    5.1465885373451314E+00
O   -5.4228657625996526E+00    2.0418354107039467E+00    5.0748964022690490E+00
O    4.6439983802906610E+00   -2.1420156103457169E+00    4.7970864573713232E+00
O   -2.3596850818060955E+00   -7.0821414410548469E+00   -1.5936895730628979E+00
K   -3.5447243226126548E+00    2.9436901331034608E+00   -2.1472089961702592E+00
K   -3.3529939230162014E+00    2.7218296318260022E+00    2.0654516927264148E+00
K    8.5035055614975297E-01   -4.6114183472522532E+00   -2.1699439136786314E+00
K    8.5133161170314131E-01   -4.6282378110962066E+00    2.1894885585679682E+00
K    4.7474484651073761E+00   -1.9995752098413067E+00    7.3316292728660339E-04
K    8.9056112655602326E-01    4.8622086157526123E+00    2.2144126103707837E-03
K   -2.7650118064454769E+00   -1.7305426710138023E+00   -3.7148832348799465E+00
K   -2.7179798719394328E+00   -1.3666114074491476E+00    4.1237486000201313E+00
K    3.9589439835224938E+00    2.3688393637903533E+00   -2.3708412089049449E+00
K    3.8226180578831777E+00    2.2838751668342412E+00    2.1948145683836127E+00
K    2.1450444490568761E+00   -9.8410185089657565E-01   -3.9353274712294977E+00
K    2.1329281422065889E+00   -1.0086564713317241E+00    3.9591633637304540E+00
K    2.4786243423702733E-01    2.7166740848029196E+00   -4.4564517280308795E+00
K    2.2458071468379012E-01    2.6705264626048781E+00    4.4912371275510923E+00
K   -5.2199077133395413E+00   -5.1472508284573193E-01   -1.5846728678292624E-02
K   -3.0466163495332252E+00   -4.3947289957296123E+00    6.7589309476545706E-02
K    3.8989329498810403E+00   -1.6922081432185978E+00    7.2171512500530719E+00
K    3.9220740840592665E+00   -1.7046539344786453E+00   -7.2364288481747518E+00
K   -6.3071885779195345E+00    7.2481436446961602E+00   -1.9161290886820876E+00
K   -6.0085134316227746E+00    5.1093877598710025E+00    3.5540089147351459E+00
K   -3.4835009857273334E+00    5.9559376944345628E+00   -6.9561386620490868E+00
K   -2.5014479540851435E+00    5.8479598568551596E+00    7.5316022321253371E+00
K    3.5300527848411005E+00   -6.3361624086218127E+00   -6.3946677882074301E+00
K    3.5586930050313192E+00   -6.3718713597810011E+00    6.4592133861026877E+00
K   -2.2750513383671431E+00    1.7047211778493077E+00   -9.5646694825931373E+00
K   -2.5011628862261781E+00    1.6262295251051142E+00    9.3938893901571205E+00
K    7.9317323289565342E+00   -3.8730010374844972E+00    3.8743166407188179E+00
K    7.9320308595817526E+00   -3.8395144556770453E+00   -3.8479026934204072E+00
     &END COORD
     &KIND O
       BASIS_SET DZVP-MOLOPT-SR-GTH
       POTENTIAL GTH-PBE-q6
       &POTENTIAL
 2 4
  0.2445543000000000E+00 2 -0.1666721480000000E+02  0.2487311320000000E+01
 2
  0.2209559200000000E+00 1  0.1833745811000000E+02
  0.2113324700000000E+00 0
         # Potential name:  GTH-PBE-Q6  for symbol:  O
         # Potential read from the potential filename: GTH_POTENTIALS
       &END POTENTIAL
     &END KIND
     &KIND Li
       BASIS_SET DZVP-MOLOPT-SR-GTH
       POTENTIAL GTH-PBE-q3
     &END KIND
     &KIND H
       BASIS_SET DZVP-MOLOPT-SR-GTH
       POTENTIAL GTH-PBE
     &END KIND
     &KIND U
       BASIS_SET DZVP-MOLOPT-SR-GTH-q14
       POTENTIAL GTH-PBE-q14
       &POTENTIAL
 4 6 1 3
  0.5305208699580800E+00 2  0.4839904058263892E+02 -0.6826283991133930E+01
 4
  0.5505696454489500E+00 2  0.3820354170479540E+01 -0.4770194681993150E+01
  0.3333300841057730E+01
  0.5019254765269400E+00 2  0.1318787585513343E+02 -0.9538875627453191E+01
  0.7101017829351740E+01
  0.6682951675764800E+00 1  0.1009200813099790E+01
  0.3243063410749400E+00 1 -0.1820283810625575E+02
         # Potential name:  GTH-PBE-Q14  for symbol:  U
         # Potential read from the potential filename: GTH_POTENTIALS
       &END POTENTIAL
     &END KIND
     &KIND K
       BASIS_SET DZVP-MOLOPT-SR-GTH-q9
       POTENTIAL GTH-PBE-q9
       &POTENTIAL
 3 6
  0.4000000000000000E+00 2 -0.3363551840000000E+01 -0.1086529750000000E+01
 2
  0.3053177200000000E+00 2  0.1785062321000000E+02 -0.5622648700000000E+01
  0.7258808260000000E+01
  0.3164843200000000E+00 2  0.7333780210000000E+01 -0.2460945050000000E+01
  0.2911829450000000E+01
         # Potential name:  GTH-PBE-Q9  for symbol:  K
         # Potential read from the potential filename: GTH_POTENTIALS
       &END POTENTIAL
     &END KIND
     &TOPOLOGY
       COORD_FILE_NAME U28.xyz
       COORD_FILE_FORMAT  XYZ
       NUMBER_OF_ATOMS  196
       CONN_FILE_FORMAT  OFF
       MULTIPLE_UNIT_CELL  1 1 1
     &END TOPOLOGY
   &END SUBSYS
 &END FORCE_EVAL
