 # Version information for this restart file 
 # current date 2023-12-05 13:59:27.739
 # current working dir /WORK/junli_work/libin/1_U28/0_try_1
 # Program compiled at                              Sun Aug 13 14:10:33 CST 2023
 # Program compiled on                                                   ibcln01
 # Program compiled for                                                    local
 # Source code revision number                                       git:d8d7100
 &GLOBAL
   PRINT_LEVEL  LOW
   PROJECT_NAME U28
   RUN_TYPE  GEO_OPT
 &END GLOBAL
 &MOTION
   &GEO_OPT
     OPTIMIZER  BFGS
     MAX_ITER  200
     STEP_START_VAL  200
     &BFGS
       TRUST_RADIUS     5.0000000000000003E-02
     &END BFGS
   &END GEO_OPT
   &PRINT
     &TRAJECTORY  SILENT
       FORMAT  XMOL
       &EACH
         GEO_OPT  1
       &END EACH
     &END TRAJECTORY
     &CELL  ON
     &END CELL
     &RESTART  SILENT
       BACKUP_COPIES  0
       &EACH
         GEO_OPT  1
       &END EACH
     &END RESTART
     &RESTART_HISTORY  OFF
     &END RESTART_HISTORY
   &END PRINT
 &END MOTION
 &FORCE_EVAL
   METHOD  QS
   STRESS_TENSOR  ANALYTICAL
   &DFT
     BASIS_SET_FILE_NAME BASIS_MOLOPT
     POTENTIAL_FILE_NAME GTH_POTENTIALS
     MULTIPLICITY  1
     CHARGE  0
     &SCF
       MAX_SCF  50
       EPS_SCF     1.0000000000000001E-05
       SCF_GUESS  RESTART
       &OT  T
         MINIMIZER  DIIS
         PRECONDITIONER  FULL_SINGLE
       &END OT
       &OUTER_SCF  T
         EPS_SCF     1.0000000000000001E-05
         MAX_SCF  10
       &END OUTER_SCF
       &PRINT
         &RESTART  ON
         &END RESTART
       &END PRINT
     &END SCF
     &QS
       EPS_DEFAULT     1.0000000000000000E-10
       EXTRAPOLATION  ASPC
       METHOD  GPW
     &END QS
     &MGRID
       CUTOFF     4.1000000000000000E+02
     &END MGRID
     &XC
       DENSITY_CUTOFF     1.0000000000000000E-10
       GRADIENT_CUTOFF     1.0000000000000000E-10
       TAU_CUTOFF     1.0000000000000000E-10
       &XC_FUNCTIONAL  NO_SHORTCUT
         &PBE  T
         &END PBE
       &END XC_FUNCTIONAL
       &VDW_POTENTIAL
         POTENTIAL_TYPE  PAIR_POTENTIAL
         &PAIR_POTENTIAL
           R_CUTOFF     1.5000000000000002E+01
           TYPE  DFTD3(BJ)
           PARAMETER_FILE_NAME dftd3.dat
           REFERENCE_FUNCTIONAL PBE
         &END PAIR_POTENTIAL
       &END VDW_POTENTIAL
     &END XC
     &POISSON
       PERIODIC  XYZ
     &END POISSON
   &END DFT
   &SUBSYS
     &CELL
       A     2.0000000000000004E+01    0.0000000000000000E+00    0.0000000000000000E+00
       B     0.0000000000000000E+00    2.0000000000000004E+01    0.0000000000000000E+00
       C     0.0000000000000000E+00    0.0000000000000000E+00    2.0000000000000004E+01
       MULTIPLE_UNIT_CELL  1 1 1
     &END CELL
     &COORD
U    2.6196707023198891E+00    5.7313387101462006E+00   -3.7401047487647494E+00
U   -1.7238959270811145E+00    5.9143074350931268E+00   -3.6549916147058901E+00
U    3.6532058661752362E+00    2.0818207168791352E+00    5.8976894249874690E+00
U    1.6774987801730668E-01    8.0289259103661470E-02   -6.8958056359705076E+00
U    4.8929588003788954E-01   -4.0156938624402168E+00   -5.8205312430012484E+00
U   -2.5951634631094667E+00   -5.8085669717534802E+00    3.5835177696240130E+00
U   -6.1048176169293522E-01   -7.3191874813826772E+00    2.9862868183839243E-02
U    6.9820940790309951E+00    1.5283566903906189E+00   -7.2310693094060199E-02
U   -3.2041873412875579E+00    2.3506110133114482E+00   -5.9139023046370598E+00
U    2.5622763085914753E+00    5.6391971960437361E+00    3.6064764256683333E+00
U   -1.7132687131966498E+00    5.9181869277846548E+00    3.7200249547028328E+00
U   -2.5951856665269806E+00   -5.8291850860795744E+00   -3.4926350365867993E+00
U    6.2089327797742247E-02   -3.0306200754332002E-02    6.9555522188467691E+00
U   -6.0218091324361289E+00   -3.5700210924926368E+00    2.1991468696967345E+00
U    6.2680277027540381E+00   -5.3439625008546043E-01   -3.7769386735917583E+00
U   -3.7006239960110876E+00    6.2526582723208985E+00    7.5745423409632279E-02
U   -6.2214301856400978E+00    5.8072604804237071E-01   -3.5488449361544463E+00
U   -3.2298208862988855E+00    2.2979833279524478E+00    5.8641541790000140E+00
U   -5.9873612053411893E+00   -3.5342373715823245E+00   -2.1824336482884381E+00
U    3.6200265160328322E+00   -6.2608039063392882E+00   -4.2174182507855575E-02
U    4.4018925240347464E+00   -4.2976693389085483E+00    3.6555618193526276E+00
U    3.7174694613796353E+00    2.2039975541309178E+00   -5.9802941237734766E+00
U    4.8271574030805660E+00    5.3898671596485732E+00   -6.1030720724115667E-02
U   -6.6293137773291395E+00    2.9569710907375883E+00    2.9744195951916724E-02
U    6.2119738958875210E+00   -5.0009687907945188E-01    3.6488759556657824E+00
U   -6.3016819992878794E+00    5.1683051491319898E-01    3.5602370193185315E+00
U    4.3887521297666359E+00   -4.2976742446750151E+00   -3.7577012226981901E+00
U    5.5501642822841135E-01   -4.0519394713568833E+00    5.8061165446541887E+00
O    6.2607059331541146E+00    3.6213483719794790E+00    6.6466584207949586E-01
O    3.1352539520048937E+00    7.1710373224439721E+00   -4.6877844009852625E+00
O   -3.9422257077061227E+00    3.1497717898264317E+00   -7.4001713769624047E+00
O   -5.5156840551396211E+00    4.9431506007651489E+00    8.2098113269934370E-01
O    4.6058941369575512E+00   -3.3708548668051252E-01    2.7201435982243427E+00
O   -2.3720614909093589E+00   -6.9995698376713120E+00    1.5699640171402502E+00
O   -4.6855543311082819E+00   -4.6147536090014247E+00    3.8622249034318057E+00
O   -6.7658823060604032E+00   -3.1255249961773814E+00    4.4771100330881376E-03
O    3.8983171577300735E-01    5.9329869777431998E+00   -4.5387287346818468E+00
O   -7.2643717074553713E+00    1.3694580907549287E+00   -1.5673516098710427E+00
O    6.2657240673637373E+00    3.6264448084425869E+00   -8.1358347591515634E-01
O   -3.8767678297803831E+00    3.2082197644199457E+00    7.3270618184612220E+00
O    3.1420773759106257E+00    7.0064519988018494E+00    4.6180793611325299E+00
O   -5.5121113313614662E+00    4.9474091458467475E+00   -6.6287417899552115E-01
O   -4.6169548256625514E+00   -4.6166289508357403E+00   -3.7870113513287467E+00
O   -6.6490203474196363E-01   -9.1278010310714741E+00    4.3693448590841214E-03
O   -7.5630362972572831E+00   -4.3630458507701277E+00    2.7139917972190335E+00
O    1.9753124861819413E+00    4.2683626974664586E+00   -2.7854422918473039E+00
O   -6.7461106119322221E+00    2.5465555272353657E+00   -2.2958480873727654E+00
O    4.0876037602457899E-01    5.8463268053921196E+00    4.6074125751639841E+00
O   -7.3275714748958158E+00    1.3206926014057219E+00    1.5672609910577222E+00
O   -7.5402988203420582E+00   -4.2844467868643958E+00   -2.7190389075010195E+00
O   -4.6943905167123674E+00   -5.4326807995498614E+00    2.6334485624632311E+00
O   -4.9407724170092665E-01   -5.4384532481086820E+00    7.2582025312341375E-03
O    5.0319178728967513E+00   -5.3541040467593115E+00    1.7213863302936663E+00
O    7.1115775802386461E+00    1.1364818214517822E+00   -2.3937008962281618E+00
O    3.3731385636399187E+00   -3.1283204495519339E+00    2.6296544164240352E+00
O    4.1095399492501766E-01    6.7479413693335841E+00   -3.3113269384950144E+00
O   -2.6263280358914436E+00    4.7655951339485529E+00    7.6574370172696415E-02
O    4.5206625520993784E+00    2.6287790267080475E+00   -7.5648518900004040E+00
O    1.8881700026295143E+00    4.2006516195431560E+00    2.6270378329211943E+00
O   -6.7578953978430336E+00    2.4702805840599700E+00    2.3053657371329281E+00
O   -4.6894068863860499E+00   -5.4307266631133979E+00   -2.5556358445216611E+00
O    5.0219841131339020E+00   -5.4339526785258361E+00   -1.8738796838861762E+00
O    3.3799556161796591E+00   -3.1242983452962632E+00   -2.7124099038376950E+00
O    5.6895433808490612E+00    1.3884057481590137E+00   -5.0140438373836167E+00
O    7.8905102553657738E+00   -6.9400880548605914E-01   -4.6091693768069844E+00
O    6.2702079313194314E+00   -2.8899342412194127E+00   -3.5403284928250329E+00
O    7.0910798572848757E+00    1.0781500417565331E+00    2.2240019052078686E+00
O    4.3622396774912380E+00    2.6279144458427024E+00    7.4948923651815367E+00
O    4.1772671415729029E-01    6.7533823006853062E+00    3.4497189947434466E+00
O   -5.8214023999949427E-01   -5.7656293364425366E+00    4.8561637904291830E+00
O    5.2754882811422892E+00   -5.4481408590752221E+00    4.7828480511124143E+00
O    3.9798320393077424E-01   -2.9709524343995506E+00    4.2912529910447033E+00
O   -1.9766634579765359E+00    4.3701088036953850E+00   -5.5086466966625354E+00
O   -1.3228613004910981E+00    1.8150349199698561E+00   -7.2309566871440820E+00
O    5.6844704787141751E+00    1.4090879045441493E+00    4.9383528844545692E+00
O    6.2520382453163741E+00   -2.8726559375897409E+00    3.4723633088035615E+00
O    7.8416635902808194E+00   -6.6819933611408810E-01    4.4571872608747869E+00
O   -6.5133001977963123E-01   -5.7515712573790108E+00   -4.8594843773990997E+00
O    3.2527239985370576E-01   -2.9680209010159531E+00   -4.2854738751343042E+00
O    5.1953286507968883E+00   -5.4601906844245445E+00   -4.9364619808840970E+00
O    4.5248119680093257E+00   -7.8150550729000079E+00   -4.2806521653238972E-03
O    8.7420216441445557E+00    1.9673544078597929E+00   -8.2880569235980875E-02
O   -3.6999567598253815E+00    6.2572374766132191E+00   -2.2998614170044243E+00
O   -1.2379748311195375E+00    4.4491635455502543E+00   -2.6241890396775083E+00
O    5.1841856684777428E+00    1.0493461026575512E+00   -7.8005275696655690E-02
O   -1.9735693097539040E+00    4.2845979331707182E+00    5.4388783821858073E+00
O   -1.2516079522847430E+00    1.8855074138999015E+00    7.0779529384018156E+00
O    9.2108640106635789E-02    9.1600840948790022E-02   -5.0345572807076957E+00
O    1.0650706909719427E+00   -2.1371043619469079E+00    7.0772627776273458E+00
O    2.9534315805525053E+00   -4.0161257280027751E+00    5.5535377386122073E+00
O    3.5419790433235820E+00    6.4945813528083880E+00   -1.7253090848439303E+00
O    5.0336256908501040E+00    2.4672670035865021E-01   -5.6798537406086007E+00
O   -3.6999881190161332E+00    6.3298851654317065E+00    2.4563179990355826E+00
O   -1.2431498672391892E+00    4.5331887267768760E+00    2.5720921950545854E+00
O    1.0613854487923120E+00   -2.0617834205537582E+00   -6.9997965382779421E+00
O    2.8767360648469911E+00   -3.8741298352354834E+00   -5.5921877686026633E+00
O    9.1424052577359305E-01   -5.1156113769136429E+00    7.2526953840160706E+00
O    8.5759858394186830E-02    1.5351327220306818E-03    5.1048140118716541E+00
O   -3.1379409015562074E+00   -7.2482238939110832E+00    4.5246368220157835E+00
O   -2.6336456291182904E+00    7.1543719054463830E+00   -1.8122034675455851E+00
O   -4.9367083484587786E+00    7.6502409577632724E+00    8.0128052921229445E-02
O    5.1775032574231981E+00    2.4547911870813477E-01    5.6772985335884609E+00
O    3.4587850969927869E+00    6.4906701076367552E+00    1.5714352255363528E+00
O    2.4269993731861156E-01    7.3772290241645791E-02   -8.7181620500683277E+00
O    8.2575046575974431E-01   -5.0245291677904849E+00   -7.3184410385617946E+00
O   -3.1389639092928956E+00   -7.3135131806246685E+00   -4.3685917262322205E+00
O   -6.4144254894195267E+00   -1.8103946093934669E+00    3.7889634424242091E+00
O    1.6447764694566585E+00   -7.2463509348792137E+00   -7.3951797030437194E-01
O    7.3287029653859035E+00   -2.3478577780089727E-01    1.5688316002362284E+00
O    4.4342292923898672E+00    5.5991017888578174E+00    2.2304291137489378E+00
O   -2.6359907554028195E+00    7.2212883100068526E+00    1.9547468450651080E+00
O   -6.1803026405514734E+00   -1.7327641587395137E+00   -3.7868625024869038E+00
O    1.6522746304844631E+00   -7.2422379006556561E+00    7.3838354854628896E-01
O    1.1379228335378879E-02   -7.9439320313092143E-02    8.7719759452697019E+00
O   -1.5574449315827470E+00   -4.9386353296251260E+00    5.5936416751588567E+00
O   -4.4484756617055421E+00   -2.6975606720493830E+00    1.6616807994797467E+00
O    2.7277257468993312E+00   -4.6129826484318830E+00   -7.2790670447864164E-02
O   -3.2826516153059795E+00    4.4508129784684431E+00   -4.7797530852777683E+00
O   -5.0163941118344662E+00    9.1959328838595056E-01   -5.5928502271285732E+00
O    2.7995296876917588E+00    1.6500703287479532E+00   -4.4432656913678832E+00
O   -4.9433894156634439E+00    2.1457118069645449E+00    7.0094310162779047E-02
O    7.4203327902137959E+00   -1.6197883693826357E-01   -1.7333993169659712E+00
O    4.5188298486125191E+00    5.6078855937169108E+00   -2.3857088472685226E+00
O   -1.6352516187222561E+00   -4.8641017419163601E+00   -5.5164081084499372E+00
O   -4.4338678030518555E+00   -2.6349281240711417E+00   -1.6452793279364806E+00
O    2.3925210819726237E+00   -5.0949902895687265E+00    4.6907122939046788E+00
O   -2.1391098237049966E+00    5.7899931011293970E-01   -7.1619720317893130E+00
O   -4.6067758310300189E+00    4.8640776588755780E-01   -2.6315188180873670E+00
O    3.5290690410949139E+00    4.0362382737633098E+00   -8.2345564068196153E-02
O    2.7798585704119825E+00    1.4723285603526111E+00    4.3631540740881452E+00
O   -3.2835107725792003E+00    4.3746530678386861E+00    4.7021006408945896E+00
O   -5.1040086148365420E+00    9.3220966744154021E-01    5.5934206558308697E+00
O    2.3820030798761325E+00   -5.0188470989629037E+00   -4.7748596794785456E+00
O   -1.0903553962109314E+00   -7.0833074679548602E+00   -2.2328140138472015E+00
O   -6.0880177553404256E+00   -4.4407977024281093E+00   -8.6771678869868019E-04
O    6.0919231017859614E+00    6.6679718457590438E+00   -3.5189902790863890E-03
O    2.7287307883391607E+00    4.2847470959350566E+00   -5.6686715639761553E+00
O    4.0232775316197813E+00    4.2737287299897275E+00   -4.9470839892074032E+00
O   -2.1541137835087736E+00    7.2658034445851105E-01    7.2369772271119972E+00
O   -4.6871459670882727E+00    3.9129670271442379E-01    2.6398564901667938E+00
O   -1.0923086984276849E+00   -7.0795326272698285E+00    2.3110941931030267E+00
O   -4.0698820603608954E-01   -2.3149100501258695E+00    7.0843044361642606E+00
O   -7.0761937078703072E+00   -1.4093337496460017E+00    2.5323069378368617E+00
O   -1.9738830243273373E+00   -4.2783826990039593E+00    2.7118052166317161E+00
O   -2.3885520544770600E+00    1.7220728339130502E+00   -4.3761449335743654E+00
O   -7.8204868409260211E+00    6.6440778305891213E-01   -4.4365611788085575E+00
O    2.6390432321589570E+00    4.1148431460947901E+00    5.4398094274747422E+00
O    3.9518526935800176E+00    4.0475577866526136E+00    4.7677403307858617E+00
O   -4.1326806322429122E-01   -2.2118472555223518E+00   -7.0866697755527124E+00
O   -1.9735986225586377E+00   -4.2862490124806225E+00   -2.6309217855510654E+00
O   -6.9171102213250837E+00   -1.3857595528609699E+00   -2.5510676419478799E+00
O    3.7790277988669798E+00   -6.0217063632793808E+00   -2.3957377714534474E+00
O   -2.3141798510261022E+00    7.2389423484631585E+00   -4.7815141393276681E+00
O    2.4686925116823444E+00    5.0755189995465455E-01   -7.0827842982252589E+00
O    1.7313375971021843E+00    1.8022017163991388E+00   -7.1632098504283732E+00
O   -5.2716811839539046E+00    2.2216594594560104E+00   -4.9383373369055183E+00
O    5.5766597794089998E+00   -2.5376509432759109E+00   -4.7876405526320429E+00
O   -2.4674272333561320E+00    1.5000359620480903E+00    4.3659715989065244E+00
O   -7.9042756754496635E+00    5.8861755371907987E-01    4.4392821277647849E+00
O    3.8533749099700612E+00   -6.0200867929058557E+00    2.2994415069200942E+00
O    4.6884475786213171E+00   -4.1264487033761332E-01   -2.8016661571416503E+00
O   -8.1547338660681774E+00    3.9339683134296806E+00    2.3612612948066174E-03
O    2.3947818076596024E+00    4.4542430411321093E-01    7.1602448280776168E+00
O    1.6412095005253029E+00    1.7262923310302418E+00    7.0874106740265548E+00
O   -2.2975065139523179E+00    7.1564662491743851E+00    4.9509903968864704E+00
O   -5.3380034008721964E+00    2.2073876229937190E+00    4.8786320157713909E+00
O    5.5147084000110196E+00   -2.4734034181394162E+00    4.6888305802425476E+00
O   -2.3717987467108506E+00   -7.0020315921092573E+00   -1.4892166627716912E+00
K   -3.5044635302778135E+00    2.9368351905217289E+00   -2.1260104856555966E+00
K   -3.5054265276528267E+00    2.9043806540444614E+00    2.1899066949819743E+00
K    8.6542339300694593E-01   -4.7039208814176057E+00   -2.1492926201583722E+00
K    8.8451140587818600E-01   -4.7118378676702388E+00    2.1305331721228673E+00
K    4.5345172766180761E+00   -2.0730967428741032E+00   -9.2875731769821210E-02
K    9.7385978194718958E-01    5.0207300920293294E+00   -1.2289703538677907E-01
K   -2.7775991368110042E+00   -1.8189622289824938E+00   -3.6475955717273725E+00
K   -2.7986682522687167E+00   -1.7517008682452493E+00    3.6654160319647606E+00
K    4.1870043170130318E+00    2.4771850478014219E+00   -2.2718118907285407E+00
K    4.0409236583139085E+00    2.4430123531093746E+00    2.1413431411371198E+00
K    2.1760031222052008E+00   -9.6090206179293525E-01   -3.7170186161718810E+00
K    2.1750185762689087E+00   -1.0947338195589167E+00    3.6764342086906909E+00
K    2.8622015667702772E-01    2.8260317816532061E+00   -4.2986625314988380E+00
K    2.2331858872977722E-01    2.7285210117004719E+00    4.2604975007618169E+00
K   -5.2424116546633686E+00   -6.0186541952506656E-01    2.2564578926818495E-02
K   -3.0558806115127388E+00   -4.4656076268624583E+00    2.9173264392912037E-02
K    4.0051185527546815E+00   -1.8492034341982517E+00    6.8753663283483393E+00
K    3.9856200606966912E+00   -1.8026702744346095E+00   -6.9774711043728930E+00
K   -6.2576323951667154E+00    7.1534536938056332E+00   -2.2386357142109317E+00
K   -6.2290561676507457E+00    7.1859725958824745E+00    2.4351373707631572E+00
K   -3.4425454237661000E+00    5.9735038904999245E+00   -6.9455337177700454E+00
K   -3.3932025003892972E+00    5.8357223834697738E+00    7.0604644540550154E+00
K    3.2628593973619608E+00   -6.8414251497812621E+00   -6.3214386780047809E+00
K    3.3306757958659450E+00   -6.8140120494582028E+00    6.2897629321977080E+00
K   -1.9491697487938218E+00   -1.1232906136170466E+00   -9.4671371324280411E+00
K    2.4415147505618546E+00    1.8752109436809370E+00    9.6056304525809626E+00
K    1.0080122513122532E+01   -4.5468444169381661E-01    2.9295111329778258E+00
K    9.9914512261462640E+00    7.2461307519591137E-02   -2.8130371364551809E+00
     &END COORD
     &KIND O
       BASIS_SET DZVP-MOLOPT-SR-GTH
       POTENTIAL GTH-PBE-q6
       &POTENTIAL
 2 4
  0.2445543000000000E+00 2 -0.1666721480000000E+02  0.2487311320000000E+01
 2
  0.2209559200000000E+00 1  0.1833745811000000E+02
  0.2113324700000000E+00 0
         # Potential name:  GTH-PBE-Q6  for symbol:  O
         # Potential read from the potential filename: GTH_POTENTIALS
       &END POTENTIAL
     &END KIND
     &KIND Li
       BASIS_SET DZVP-MOLOPT-SR-GTH
       POTENTIAL GTH-PBE-q3
     &END KIND
     &KIND H
       BASIS_SET DZVP-MOLOPT-SR-GTH
       POTENTIAL GTH-PBE
     &END KIND
     &KIND U
       BASIS_SET DZVP-MOLOPT-SR-GTH-q14
       POTENTIAL GTH-PBE-q14
       &POTENTIAL
 4 6 1 3
  0.5305208699580800E+00 2  0.4839904058263892E+02 -0.6826283991133930E+01
 4
  0.5505696454489500E+00 2  0.3820354170479540E+01 -0.4770194681993150E+01
  0.3333300841057730E+01
  0.5019254765269400E+00 2  0.1318787585513343E+02 -0.9538875627453191E+01
  0.7101017829351740E+01
  0.6682951675764800E+00 1  0.1009200813099790E+01
  0.3243063410749400E+00 1 -0.1820283810625575E+02
         # Potential name:  GTH-PBE-Q14  for symbol:  U
         # Potential read from the potential filename: GTH_POTENTIALS
       &END POTENTIAL
     &END KIND
     &KIND K
       BASIS_SET DZVP-MOLOPT-SR-GTH-q9
       POTENTIAL GTH-PBE-q9
       &POTENTIAL
 3 6
  0.4000000000000000E+00 2 -0.3363551840000000E+01 -0.1086529750000000E+01
 2
  0.3053177200000000E+00 2  0.1785062321000000E+02 -0.5622648700000000E+01
  0.7258808260000000E+01
  0.3164843200000000E+00 2  0.7333780210000000E+01 -0.2460945050000000E+01
  0.2911829450000000E+01
         # Potential name:  GTH-PBE-Q9  for symbol:  K
         # Potential read from the potential filename: GTH_POTENTIALS
       &END POTENTIAL
     &END KIND
     &TOPOLOGY
       COORD_FILE_NAME U28_1.xyz
       COORD_FILE_FORMAT  XYZ
       NUMBER_OF_ATOMS  196
       CONN_FILE_FORMAT  OFF
       MULTIPLE_UNIT_CELL  1 1 1
     &END TOPOLOGY
   &END SUBSYS
 &END FORCE_EVAL
