 # Version information for this restart file 
 # current date 2023-09-27 20:28:12.701
 # current working dir /WORK/junli_work/libin/1_U28/orin
 # Program compiled at                              Sun Aug 13 14:10:33 CST 2023
 # Program compiled on                                                   ibcln01
 # Program compiled for                                                    local
 # Source code revision number                                       git:d8d7100
 &GLOBAL
   PRINT_LEVEL  LOW
   PROJECT_NAME U28
   RUN_TYPE  GEO_OPT
 &END GLOBAL
 &MOTION
   &GEO_OPT
     OPTIMIZER  BFGS
     MAX_ITER  400
     STEP_START_VAL  239
     &BFGS
       TRUST_RADIUS     2.5000000000000000E-01
     &END BFGS
   &END GEO_OPT
   &PRINT
     &TRAJECTORY  SILENT
       FORMAT  XMOL
       &EACH
         GEO_OPT  1
       &END EACH
     &END TRAJECTORY
     &CELL  ON
     &END CELL
     &RESTART  SILENT
       BACKUP_COPIES  0
       &EACH
         GEO_OPT  1
       &END EACH
     &END RESTART
     &RESTART_HISTORY  OFF
     &END RESTART_HISTORY
   &END PRINT
 &END MOTION
 &FORCE_EVAL
   METHOD  QS
   STRESS_TENSOR  ANALYTICAL
   &DFT
     BASIS_SET_FILE_NAME BASIS_MOLOPT
     POTENTIAL_FILE_NAME GTH_POTENTIALS
     MULTIPLICITY  1
     CHARGE  0
     &SCF
       MAX_SCF  50
       EPS_SCF     1.0000000000000001E-05
       SCF_GUESS  RESTART
       &OT  T
         MINIMIZER  DIIS
         PRECONDITIONER  FULL_SINGLE
       &END OT
       &OUTER_SCF  T
         EPS_SCF     1.0000000000000001E-05
         MAX_SCF  10
       &END OUTER_SCF
       &PRINT
         &RESTART  ON
         &END RESTART
       &END PRINT
     &END SCF
     &QS
       EPS_DEFAULT     1.0000000000000000E-10
       EXTRAPOLATION  ASPC
       METHOD  GPW
     &END QS
     &MGRID
       CUTOFF     4.1000000000000000E+02
     &END MGRID
     &XC
       DENSITY_CUTOFF     1.0000000000000000E-10
       GRADIENT_CUTOFF     1.0000000000000000E-10
       TAU_CUTOFF     1.0000000000000000E-10
       &XC_FUNCTIONAL  NO_SHORTCUT
         &PBE  T
         &END PBE
       &END XC_FUNCTIONAL
       &VDW_POTENTIAL
         POTENTIAL_TYPE  PAIR_POTENTIAL
         &PAIR_POTENTIAL
           R_CUTOFF     1.5000000000000002E+01
           TYPE  DFTD3(BJ)
           PARAMETER_FILE_NAME dftd3.dat
           REFERENCE_FUNCTIONAL PBE
         &END PAIR_POTENTIAL
       &END VDW_POTENTIAL
     &END XC
     &POISSON
       PERIODIC  XYZ
     &END POISSON
   &END DFT
   &SUBSYS
     &CELL
       A     2.0000000000000004E+01    0.0000000000000000E+00    0.0000000000000000E+00
       B     0.0000000000000000E+00    2.0000000000000004E+01    0.0000000000000000E+00
       C     0.0000000000000000E+00    0.0000000000000000E+00    2.0000000000000004E+01
       MULTIPLE_UNIT_CELL  1 1 1
     &END CELL
     &COORD
U   -2.2135071276679660E+01   -2.5570682629289760E+01   -3.8946310676524519E+01
U   -2.6400985411484506E+01   -2.5415249768141873E+01   -3.8933907885724913E+01
U   -2.1069993968286777E+01   -2.9147805380590427E+01   -2.9222372862778997E+01
U   -2.4614723732430299E+01   -3.1324387567077473E+01   -4.2216319961592419E+01
U   -2.4071176344271876E+01   -3.5317566357815124E+01   -4.1106757274995744E+01
U   -2.7166186018151709E+01   -3.7109758255215425E+01   -3.1637376680199154E+01
U   -2.5222865821030705E+01   -3.8574358119288284E+01   -3.5220536405522957E+01
U   -1.7699933692785841E+01   -2.9788854878446724E+01   -3.5227663543593252E+01
U   -2.7922667972903348E+01   -2.8943279693403277E+01   -4.1214100410352501E+01
U   -2.2129157396178122E+01   -2.5564488239263493E+01   -3.1498818763848192E+01
U   -2.6365122475839932E+01   -2.5343714814093939E+01   -3.1506488760887347E+01
U   -2.7132028982276989E+01   -3.7113741162658854E+01   -3.8853584996098924E+01
U   -2.4599637591272973E+01   -3.1296228100703615E+01   -2.8212189153405586E+01
U   -3.0563658799976910E+01   -3.4831243294071285E+01   -3.2970851334040091E+01
U   -1.8472898980193904E+01   -3.1731881922552905E+01   -3.8979914436140568E+01
U   -2.8426220439335310E+01   -2.4928396873097473E+01   -3.5236588644415072E+01
U   -3.0944228632719405E+01   -3.0756095358993154E+01   -3.8804587741586097E+01
U   -2.7834052200339389E+01   -2.8893306024434722E+01   -2.9256944928812011E+01
U   -3.0549849503615750E+01   -3.4809793201123078E+01   -3.7463083526257826E+01
U   -2.0957872443542698E+01   -3.7510154323821645E+01   -3.5206772199276855E+01
U   -2.0226626807305049E+01   -3.5566888298465692E+01   -3.1510792742238628E+01
U   -2.1068971319906968E+01   -2.9174898130052416E+01   -4.1213789969525372E+01
U   -1.9873486700026611E+01   -2.5877407475129232E+01   -3.5224158469782779E+01
U   -3.1262453736012944E+01   -2.8274170178724166E+01   -3.5220073592277942E+01
U   -1.8461477978729175E+01   -3.1738053924603118E+01   -3.1490745299401549E+01
U   -3.0864826627865810E+01   -3.0736166239617052E+01   -3.1643059874947742E+01
U   -2.0237278802147340E+01   -3.5561042448442350E+01   -3.8919462080279338E+01
U   -2.4100610290095730E+01   -3.5320738373643977E+01   -2.9353904277749681E+01
O   -1.8433812397457086E+01   -2.7655664205914519E+01   -3.4491051502526020E+01
O   -2.1483079128750330E+01   -2.4197739409821363E+01   -3.9914850400992854E+01
O   -2.8646394685903516E+01   -2.7994405425665960E+01   -4.2636237880876806E+01
O   -3.0284482068038162E+01   -2.6251597064829415E+01   -3.4493177294538178E+01
O   -2.0068783691309889E+01   -3.1606184401584407E+01   -3.2429545888285553E+01
O   -2.6996214104085063E+01   -3.8367486357912000E+01   -3.3663754492705301E+01
O   -2.9284956657798993E+01   -3.5983442405565988E+01   -3.1360475836440088E+01
O   -3.1275913147026380E+01   -3.4407040052227295E+01   -3.5225317928940356E+01
O   -2.4284792388094623E+01   -2.5419629846630041E+01   -3.9915748112781742E+01
O   -3.1864278026797734E+01   -2.9966976069072860E+01   -3.6780592851419136E+01
O   -1.8433221333894480E+01   -2.7653396808472877E+01   -3.5954852159980341E+01
O   -2.8559146455417860E+01   -2.7985124791946781E+01   -2.7813149935764748E+01
O   -2.1480306627650130E+01   -2.4190033954680903E+01   -3.0537210027496116E+01
O   -3.0284225468589156E+01   -2.6253787669350611E+01   -3.5954641837357045E+01
O   -2.9216556560066543E+01   -3.5898213805978848E+01   -3.9087687946553515E+01
O   -2.5524537168079053E+01   -4.0415088363776910E+01   -3.5213869932275891E+01
O   -3.2098607859230796E+01   -3.5640461915979728E+01   -3.2509321468150652E+01
O   -2.2797887992400060E+01   -2.6991851135995997E+01   -3.7940853078660730E+01
O   -3.1356596771314138E+01   -2.8805910273664360E+01   -3.7530925011976322E+01
O   -2.4270673876481005E+01   -2.5341059052069049E+01   -3.0536075674297024E+01
O   -3.1856213490926070E+01   -2.9973425477447414E+01   -3.3665989246743074E+01
O   -3.2019552047252176E+01   -3.5720993503787952E+01   -3.7941895902768799E+01
O   -2.9299785500808795E+01   -3.6780612901450908E+01   -3.2585907334068253E+01
O   -2.5103176181988367E+01   -3.6703918911111941E+01   -3.5221593478712172E+01
O   -1.9595191197900650E+01   -3.6713293901090118E+01   -3.3410609050125437E+01
O   -1.7603596877304369E+01   -3.0041484859822386E+01   -3.7542878649694352E+01
O   -2.1238440995313475E+01   -3.4410261186142357E+01   -3.2586016419609393E+01
O   -2.4272957479914794E+01   -2.4516318494282672E+01   -3.8754890428572480E+01
O   -2.7474358748184514E+01   -2.6508746837430031E+01   -3.5228432386372468E+01
O   -2.0243112655724484E+01   -2.8642719794450208E+01   -4.2719442376016055E+01
O   -2.2798231026909662E+01   -2.6989536126513929E+01   -3.2505041907117366E+01
O   -3.1357026450260829E+01   -2.8801269639100131E+01   -3.2917513024113880E+01
O   -2.9219096386731785E+01   -3.6702635810404786E+01   -3.7865929903743300E+01
O   -1.9586086126580074E+01   -3.6632487066175507E+01   -3.6959120550688134E+01
O   -2.1300540945763359E+01   -3.4417638315198374E+01   -3.7866833294809517E+01
O   -1.9017490385280581E+01   -2.9867347332647942E+01   -4.0318644939632911E+01
O   -1.6870276529674584E+01   -3.1839932453422730E+01   -3.9831040788230737E+01
O   -1.8433872928797395E+01   -3.4078272715140557E+01   -3.8765471814554054E+01
O   -1.7531130282582808E+01   -3.0117719381304596E+01   -3.2918611524637257E+01
O   -2.0172695171082591E+01   -2.8646823415176616E+01   -2.7740791003386445E+01
O   -2.4204159873720975E+01   -2.4436855649462789E+01   -3.1697281563240409E+01
O   -2.5191200321896016E+01   -3.7115128183983764E+01   -3.0372242996744248E+01
O   -1.9346513740292693E+01   -3.6708729832898264E+01   -3.0364651340486386E+01
O   -2.4360626901642277E+01   -3.4241639299621902E+01   -3.0864990781461383E+01
O   -2.6678721763177112E+01   -2.6979157385750263E+01   -4.0731283176453928E+01
O   -2.5992502631966936E+01   -2.9386947629874530E+01   -4.2473978074265858E+01
O   -1.9082806234971134E+01   -2.9858815832068608E+01   -3.0213439789148339E+01
O   -1.8430858218074999E+01   -3.4080942582459606E+01   -3.1682693961815623E+01
O   -1.6873374965206224E+01   -3.1844799682036790E+01   -3.0621091701652436E+01
O   -2.5184827297550530E+01   -3.7120106486476800E+01   -4.0164463298717187E+01
O   -2.4361649631549852E+01   -3.4247159895148236E+01   -3.9595401675837145E+01
O   -1.9351156914614563E+01   -3.6701958523503009E+01   -4.0071536122691356E+01
O   -2.0006039679894965E+01   -3.9028377770433728E+01   -3.5221557465759481E+01
O   -1.5900012656474782E+01   -2.9390374823298991E+01   -3.5227744479454834E+01
O   -2.8225760328920533E+01   -2.4855596276110553E+01   -3.7556402551828711E+01
O   -2.5855878755876187E+01   -2.6833041733179694E+01   -3.7852965782833451E+01
O   -1.9499642910173584E+01   -3.0282380633697414E+01   -3.5225517878380344E+01
O   -2.6603658580532883E+01   -2.6911383675963631E+01   -2.9714651255370665E+01
O   -2.5927745925569546E+01   -2.9377890723432976E+01   -2.7912444822982728E+01
O   -2.4612019414598024E+01   -3.1275695881159084E+01   -4.0348523450051943E+01
O   -2.3613630641128442E+01   -3.3420236968380934E+01   -2.8056813458517958E+01
O   -2.1719262991885113E+01   -3.5147352837263817E+01   -2.9641507836835665E+01
O   -2.1155889554358001E+01   -2.4771821689948755E+01   -3.6878491452945475E+01
O   -1.9661572196018405E+01   -3.1044244701427399E+01   -4.0916783553299751E+01
O   -2.8161137367103755E+01   -2.4848945031905846E+01   -3.2921750106881106E+01
O   -2.5843398002133412E+01   -2.6758679683930691E+01   -3.2599192168627440E+01
O   -2.3552039250337437E+01   -3.3425583425301944E+01   -4.2465340817289764E+01
O   -2.1719939401506721E+01   -3.5139211679494487E+01   -4.0749981050309479E+01
O   -2.3696650049293243E+01   -3.6380595025690134E+01   -2.7890460998107820E+01
O   -2.4610995947926572E+01   -3.1272657557754638E+01   -3.0066571713882308E+01
O   -2.7737184365092364E+01   -3.8610715610707999E+01   -3.0786788463448048E+01
O   -2.7052726898380143E+01   -2.4110959847047351E+01   -3.7042034769999773E+01
O   -2.9220202055427620E+01   -2.3291636313978216E+01   -3.5238334919164359E+01
O   -1.9664125260865116E+01   -3.1029960044236500E+01   -2.9546230293571139E+01
O   -2.1158577223700988E+01   -2.4771737745815397E+01   -3.3569634516712341E+01
O   -2.4615569269812788E+01   -3.1425431013377427E+01   -4.4026496631709563E+01
O   -2.3618780258709428E+01   -3.6379483898052442E+01   -4.2557248361525168E+01
O   -2.7742646918099915E+01   -3.8616872666625312E+01   -3.9672176742091473E+01
O   -3.0870329824106516E+01   -3.3090427203835212E+01   -3.1361389113684261E+01
O   -2.2975202132539732E+01   -3.8523944913293306E+01   -3.5961097462275717E+01
O   -1.7278402568163550E+01   -3.1431693703416514E+01   -3.3571752723214217E+01
O   -2.0241306253174315E+01   -2.5673096016725733E+01   -3.2917598141523321E+01
O   -2.6992146217853975E+01   -2.4106053794706263E+01   -3.3428235664207065E+01
O   -3.1023023384427542E+01   -3.3095062941723050E+01   -3.9028636353933287E+01
O   -2.2968610374975110E+01   -3.8523662785944488E+01   -3.4489469337476905E+01
O   -2.4611642677130217E+01   -3.1363459956405190E+01   -2.6407702686272408E+01
O   -2.6178237926563128E+01   -3.6300278589179875E+01   -2.9629863634832670E+01
O   -2.8981151409059617E+01   -3.3979781636633291E+01   -3.3490645779936877E+01
O   -2.1888567227713935E+01   -3.5885492913728079E+01   -3.5221713869303834E+01
O   -2.7977775859566190E+01   -2.6909510787749284E+01   -3.9990415198545804E+01
O   -2.9715700113385488E+01   -3.0429569894338815E+01   -4.0821408234814669E+01
O   -2.1971815418616384E+01   -2.9716047933270254E+01   -3.9665689887972206E+01
O   -2.9551740037926528E+01   -2.9047887035581027E+01   -3.5223494624617679E+01
O   -1.7281739152103519E+01   -3.1362940391815297E+01   -3.6947902043057411E+01
O   -2.0243613071307390E+01   -2.5672595330304457E+01   -3.7533797011408694E+01
O   -2.6176925990308142E+01   -3.6302716115563790E+01   -4.0896527089102648E+01
O   -2.8986008868470563E+01   -3.3905746398854149E+01   -3.6957799540432447E+01
O   -2.2229092660181660E+01   -3.6291943732552504E+01   -3.0456661108529769E+01
O   -2.6905570124546774E+01   -3.0548903345587693E+01   -4.2622848394982690E+01
O   -2.9300784818353968E+01   -3.0946721589712467E+01   -3.7939769174834105E+01
O   -2.1225924828012730E+01   -2.7164561450188966E+01   -3.5226769049798662E+01
O   -2.1976282338720047E+01   -2.9701915194270047E+01   -3.0772213509365837E+01
O   -2.7904470968243018E+01   -2.6823794215139785E+01   -3.0452973948900379E+01
O   -2.9637531098203798E+01   -3.0364436880788670E+01   -2.9630239789909560E+01
O   -2.2228866120843829E+01   -3.6305564036162359E+01   -3.9981063451564836E+01
O   -2.5686004972687105E+01   -3.8454286956717482E+01   -3.7528323923975165E+01
O   -3.0542931064638069E+01   -3.5648305097961256E+01   -3.5226796638538879E+01
O   -1.8598583183663003E+01   -2.4615150483291114E+01   -3.5226894824617119E+01
O   -2.1985277814689898E+01   -2.7073885025100989E+01   -4.0747673705185626E+01
O   -2.0735981093523108E+01   -2.7161056037504320E+01   -4.0006772872845325E+01
O   -2.6841360913287353E+01   -3.0546776921674780E+01   -2.7896070290934521E+01
O   -2.9224920173713272E+01   -3.0939860288401505E+01   -3.2514084979206721E+01
O   -2.5712851978768537E+01   -3.8518548591464871E+01   -3.2917536327941846E+01
O   -2.5086306884909625E+01   -3.3656289951160346E+01   -2.7983939822608868E+01
O   -3.1592345100105607E+01   -3.2750695135889636E+01   -3.2593660177041208E+01
O   -2.6579154821567446E+01   -3.5573658883303295E+01   -3.2512293971133730E+01
O   -2.7081722146532023E+01   -2.9715123823796777E+01   -3.9745743332891863E+01
O   -3.2590773287569718E+01   -3.0612799341045974E+01   -3.9587307631729523E+01
O   -2.1982124802458348E+01   -2.7000260291221405E+01   -2.9630504834485784E+01
O   -2.0729978722853993E+01   -2.7085060069680825E+01   -3.0368055043938806E+01
O   -2.5026235139894549E+01   -3.3666004006131168E+01   -4.2477576862379678E+01
O   -2.6502132872325955E+01   -3.5629345082523145E+01   -3.7939682283642568E+01
O   -3.1679050673778189E+01   -3.2754234259600032E+01   -3.7772393193942669E+01
O   -2.0740310206549037E+01   -3.7350315758214322E+01   -3.7534449661768633E+01
O   -2.7000999878328429E+01   -2.4103003195040426E+01   -4.0088489148323852E+01
O   -2.2304332201209679E+01   -3.0863354449887233E+01   -4.2375502519023101E+01
O   -2.3055378553060741E+01   -2.9595583967250313E+01   -4.2388902908729690E+01
O   -2.9965753839171494E+01   -2.9133562949989258E+01   -4.0160651781772486E+01
O   -1.9181124438250841E+01   -3.3745556299449966E+01   -3.9991535137781113E+01
O   -2.6998743294347040E+01   -2.9695477215656449E+01   -3.0713901182697708E+01
O   -3.2512030024226256E+01   -3.0610151830805222E+01   -3.0865787810510088E+01
O   -2.0808329107178320E+01   -3.7355491078550898E+01   -3.2849963980384835E+01
O   -2.0072179314309260E+01   -3.1604978232274480E+01   -3.8027709898315514E+01
O   -3.2926105812039303E+01   -2.7580812176743013E+01   -3.5223557899657941E+01
O   -2.2293655141125097E+01   -3.0855531939802685E+01   -2.8070401091808517E+01
O   -2.3037859678781683E+01   -2.9580063772813716E+01   -2.7988183417813044E+01
O   -2.6996700276271930E+01   -2.4033548898205684E+01   -3.0359864918543490E+01
O   -2.9885168999564470E+01   -2.9067593918558622E+01   -3.0295011770293186E+01
O   -1.9180357933917449E+01   -3.3741349053145690E+01   -3.0461521739234627E+01
O   -2.6982477608019654E+01   -3.8359182984874316E+01   -3.6795879095204839E+01
K   -2.8241761318860995E+01   -2.8306926171753840E+01   -3.7459766623749516E+01
K   -2.8202743277161670E+01   -2.8263794863334795E+01   -3.3009092276396913E+01
K   -2.3693179426281084E+01   -3.5928976217395856E+01   -3.7398669107651656E+01
K   -2.3699268567465758E+01   -3.5915008896052278E+01   -3.3045875755994288E+01
K   -2.0198990126783492E+01   -3.3404717159772957E+01   -3.5190918836852902E+01
K   -2.4186849930744248E+01   -2.6362895531288910E+01   -3.5217210136790648E+01
K   -2.7318499697638181E+01   -3.2807283341602727E+01   -3.9004104781769890E+01
K   -2.7298401656782261E+01   -3.2856915657294202E+01   -3.1436962302341268E+01
K   -2.0630549387905511E+01   -2.8820396393940896E+01   -3.7442844294071520E+01
K   -2.0638219907939774E+01   -2.8826382232558590E+01   -3.3010534361029841E+01
K   -2.2490512875158238E+01   -3.2295826479045573E+01   -3.9026603955559210E+01
K   -2.2438814391457644E+01   -3.2319086890336202E+01   -3.1329761996742075E+01
K   -2.4467767320081876E+01   -2.8535091571711646E+01   -3.9590285622653020E+01
K   -2.4453589443209470E+01   -2.8515577189710658E+01   -3.0909171079855334E+01
K   -2.9830807409966489E+01   -3.1813387168025667E+01   -3.5218008240362423E+01
K   -2.7612016213403319E+01   -3.5667861092605840E+01   -3.5242427632153976E+01
K   -2.0475999286194199E+01   -3.3023525651862997E+01   -2.8150448563336056E+01
K   -2.0597555313204712E+01   -3.3045405944922678E+01   -4.2260686642126515E+01
K   -2.7032646961788377E+01   -2.1072126291719947E+01   -3.7659200428001931E+01
K   -2.7009629485728187E+01   -2.1099064398085353E+01   -3.2777143176562888E+01
K   -2.8501290560976699E+01   -2.5330686165376477E+01   -4.2009877987341888E+01
K   -2.8383004672977897E+01   -2.5287707236520944E+01   -2.8401476139767240E+01
K   -2.1225195134865125E+01   -3.7955112809482841E+01   -4.1650267760208706E+01
K   -2.1247708801696277E+01   -3.7977862299433490E+01   -2.8812296613349599E+01
K   -2.6451170246259370E+01   -2.9623798926168867E+01   -4.5192429615198613E+01
K   -2.4564154553811282E+01   -3.3907385681061292E+01   -2.5257051420837499E+01
K   -1.4690114755741964E+01   -3.0237766069228648E+01   -3.2618177894691094E+01
K   -1.4790061709958826E+01   -3.0392532204325992E+01   -3.7937615681382709E+01
     &END COORD
     &KIND O
       BASIS_SET DZVP-MOLOPT-SR-GTH
       POTENTIAL GTH-PBE-q6
       &POTENTIAL
 2 4
  0.2445543000000000E+00 2 -0.1666721480000000E+02  0.2487311320000000E+01
 2
  0.2209559200000000E+00 1  0.1833745811000000E+02
  0.2113324700000000E+00 0
         # Potential name:  GTH-PBE-Q6  for symbol:  O
         # Potential read from the potential filename: GTH_POTENTIALS
       &END POTENTIAL
     &END KIND
     &KIND Li
       BASIS_SET DZVP-MOLOPT-SR-GTH
       POTENTIAL GTH-PBE-q3
     &END KIND
     &KIND H
       BASIS_SET DZVP-MOLOPT-SR-GTH
       POTENTIAL GTH-PBE
     &END KIND
     &KIND U
       BASIS_SET DZVP-MOLOPT-SR-GTH-q14
       POTENTIAL GTH-PBE-q14
       &POTENTIAL
 4 6 1 3
  0.5305208699580800E+00 2  0.4839904058263892E+02 -0.6826283991133930E+01
 4
  0.5505696454489500E+00 2  0.3820354170479540E+01 -0.4770194681993150E+01
  0.3333300841057730E+01
  0.5019254765269400E+00 2  0.1318787585513343E+02 -0.9538875627453191E+01
  0.7101017829351740E+01
  0.6682951675764800E+00 1  0.1009200813099790E+01
  0.3243063410749400E+00 1 -0.1820283810625575E+02
         # Potential name:  GTH-PBE-Q14  for symbol:  U
         # Potential read from the potential filename: GTH_POTENTIALS
       &END POTENTIAL
     &END KIND
     &KIND K
       BASIS_SET DZVP-MOLOPT-SR-GTH-q9
       POTENTIAL GTH-PBE-q9
       &POTENTIAL
 3 6
  0.4000000000000000E+00 2 -0.3363551840000000E+01 -0.1086529750000000E+01
 2
  0.3053177200000000E+00 2  0.1785062321000000E+02 -0.5622648700000000E+01
  0.7258808260000000E+01
  0.3164843200000000E+00 2  0.7333780210000000E+01 -0.2460945050000000E+01
  0.2911829450000000E+01
         # Potential name:  GTH-PBE-Q9  for symbol:  K
         # Potential read from the potential filename: GTH_POTENTIALS
       &END POTENTIAL
     &END KIND
     &TOPOLOGY
       COORD_FILE_NAME U28.xyz
       COORD_FILE_FORMAT  XYZ
       NUMBER_OF_ATOMS  196
       CONN_FILE_FORMAT  OFF
       MULTIPLE_UNIT_CELL  1 1 1
     &END TOPOLOGY
   &END SUBSYS
 &END FORCE_EVAL
