 # Version information for this restart file 
 # current date 2023-09-19 14:06:01.283
 # current working dir /WORK/junli_work/libin/1_U28/0_try
 # Program compiled at                              Sun Aug 13 14:10:33 CST 2023
 # Program compiled on                                                   ibcln01
 # Program compiled for                                                    local
 # Source code revision number                                       git:d8d7100
 &GLOBAL
   PRINT_LEVEL  LOW
   PROJECT_NAME U28
   RUN_TYPE  GEO_OPT
 &END GLOBAL
 &MOTION
   &GEO_OPT
     OPTIMIZER  BFGS
     MAX_ITER  400
     STEP_START_VAL  400
   &END GEO_OPT
   &PRINT
     &TRAJECTORY  SILENT
       FORMAT  XMOL
       &EACH
         GEO_OPT  1
       &END EACH
     &END TRAJECTORY
     &CELL  ON
     &END CELL
     &RESTART  SILENT
       BACKUP_COPIES  0
       &EACH
         GEO_OPT  1
       &END EACH
     &END RESTART
     &RESTART_HISTORY  OFF
     &END RESTART_HISTORY
   &END PRINT
 &END MOTION
 &FORCE_EVAL
   METHOD  QS
   STRESS_TENSOR  ANALYTICAL
   &DFT
     BASIS_SET_FILE_NAME BASIS_MOLOPT
     POTENTIAL_FILE_NAME GTH_POTENTIALS
     MULTIPLICITY  1
     CHARGE  0
     &SCF
       MAX_SCF  50
       EPS_SCF     1.0000000000000001E-05
       SCF_GUESS  RESTART
       &OT  T
         MINIMIZER  DIIS
         PRECONDITIONER  FULL_SINGLE
       &END OT
       &OUTER_SCF  T
         EPS_SCF     1.0000000000000001E-05
         MAX_SCF  10
       &END OUTER_SCF
       &PRINT
         &RESTART  ON
         &END RESTART
       &END PRINT
     &END SCF
     &QS
       EPS_DEFAULT     1.0000000000000000E-10
       EXTRAPOLATION  ASPC
       METHOD  GPW
     &END QS
     &MGRID
       CUTOFF     4.1000000000000000E+02
     &END MGRID
     &XC
       DENSITY_CUTOFF     1.0000000000000000E-10
       GRADIENT_CUTOFF     1.0000000000000000E-10
       TAU_CUTOFF     1.0000000000000000E-10
       &XC_FUNCTIONAL  NO_SHORTCUT
         &PBE  T
         &END PBE
       &END XC_FUNCTIONAL
       &VDW_POTENTIAL
         POTENTIAL_TYPE  PAIR_POTENTIAL
         &PAIR_POTENTIAL
           R_CUTOFF     1.5000000000000005E+01
           TYPE  DFTD3(BJ)
           PARAMETER_FILE_NAME dftd3.dat
           REFERENCE_FUNCTIONAL PBE
         &END PAIR_POTENTIAL
       &END VDW_POTENTIAL
     &END XC
     &POISSON
       PERIODIC  XYZ
     &END POISSON
   &END DFT
   &SUBSYS
     &CELL
       A     2.0000000000000011E+01    0.0000000000000000E+00    0.0000000000000000E+00
       B     0.0000000000000000E+00    2.0000000000000011E+01    0.0000000000000000E+00
       C     0.0000000000000000E+00    0.0000000000000000E+00    2.0000000000000011E+01
       MULTIPLE_UNIT_CELL  1 1 1
     &END CELL
     &COORD
U    2.3751177920496760E+00    5.7473219010498227E+00   -3.1235650746338623E+00
U   -1.7490296093654936E+00    5.3870447718818584E+00   -3.5240160850102895E+00
U    4.7830957454082750E+00    2.0177567484409886E+00    5.3082216016947088E+00
U    8.3766038016233624E-01   -9.1303732935493953E-01   -7.8727942446258847E+00
U    1.8013653027869719E-01   -3.9104824815509382E+00   -6.1621476110196047E+00
U   -2.7463847211477272E+00   -5.3983088043322294E+00    3.3945304108272625E+00
U   -1.7000254995227084E+00   -8.5558343270243018E+00    3.1062166713220501E-01
U    7.2177816354993283E+00    1.0922279966142876E+00    5.7036087509459565E-01
U   -4.4591753598074293E+00    3.1658768735379814E+00   -5.3504269214225069E+00
U    2.8126337684500493E+00    5.3941031475872734E+00    3.2906858934690359E+00
U   -2.1015503941088807E+00    6.4566180035476552E+00    3.4284105451513640E+00
U   -3.0235660001523312E+00   -5.8986891700279402E+00   -4.9842117354304962E+00
U   -1.6573012545246062E-02   -9.6164626507143725E-01    7.9215412015183162E+00
U   -5.3042382100181813E+00   -3.2342831226969597E+00    2.3538515841695680E+00
U    6.0862817494264858E+00   -8.4572842454122599E-01   -3.6472788634624491E+00
U   -3.0520431050308536E+00    6.0907768734535814E+00   -4.0295700112764621E-01
U   -5.5875334108747055E+00    2.0502680478383836E-01   -3.8663465719851291E+00
U   -3.1009403538474198E+00    2.0909259223763406E+00    5.7664585711260488E+00
U   -5.5448166857968699E+00   -3.1533371874648894E+00   -2.9296711693155566E+00
U    3.7663314503239378E+00   -5.8881308631097076E+00   -2.8519291022443644E-01
U    4.6071663057516217E+00   -4.8855036070992517E+00    3.1094758138632277E+00
U    2.7578957938999249E+00    1.5125739198869617E+00   -5.7323789240082865E+00
U    4.3907332354349782E+00    5.4714751223875462E+00    1.5753603887775355E-01
U   -8.1632473272268307E+00    2.3767853411522526E+00    8.9487713350557530E-01
U    6.0376459278670760E+00   -9.0149691058940573E-01    3.1880722711480849E+00
U   -6.2783265755648436E+00    1.3508459987169963E+00    4.4428587457595805E+00
U    3.3628815881382770E+00   -3.8548227705621549E+00   -3.4050705594782489E+00
U    8.6307873579292560E-01   -3.5516210286942491E+00    5.6393444699422348E+00
O    7.0024666686702668E+00    3.4617294665041607E+00    4.1338845651045192E-01
O    2.5488017935349747E+00    7.2351943308706144E+00   -4.1947149738719247E+00
O   -3.5317303483041815E+00    3.5477669469854543E+00   -7.0034465286160721E+00
O   -8.2404577538294213E+00    4.1824880810172544E+00    1.1526186332812682E+00
O    4.2885489614079342E+00   -7.4718760547744500E-01    2.4659128783733766E+00
O   -5.8223837503747233E-01   -7.9794880722433108E+00    2.1396936774592232E+00
O   -3.8671104606829880E+00   -3.7958563396394203E+00    4.0147711957806482E+00
O   -6.7503544193015461E+00   -2.8069659798310043E+00    4.8151221747346740E-01
O    5.6069460615832178E-01    4.8563519538414885E+00   -3.5422425262164152E+00
O   -5.6660204487476378E+00    2.4614928468148856E+00    5.9493144258310349E-01
O    5.9304082526062167E+00    3.7052619081700828E+00   -3.4441679869794317E-01
O   -3.1311911178193155E+00    3.1302648722231847E+00    7.4075428946860145E+00
O    3.0470814398401802E+00    6.9988387887185466E+00    4.1202279499533772E+00
O   -5.1975850014914409E+00    5.2749083067368465E+00   -1.6147177070056246E-01
O   -4.2801703846580850E+00   -6.0107436904061986E+00   -6.3440021559129587E+00
O   -9.3180745067317175E-02   -9.2196511957770344E+00   -2.3935418138670819E-01
O   -6.6664762789099301E+00   -4.1982047971319361E+00    3.0462331989859983E+00
O    2.0510866992067811E+00    4.1133430060206893E+00   -1.4696697845354749E+00
O   -7.3214541872068777E+00    2.9607493494717190E+00   -1.2420084755604452E+00
O    2.4092724719534900E-01    5.7712814893411082E+00    3.6906220448923883E+00
O   -7.9889977823507978E+00    5.8125854159851020E-01    5.8515092672227720E-01
O   -6.9974609305664455E+00   -3.9442089086272678E+00   -3.7078123686723630E+00
O   -3.9526401334076007E+00   -5.1050846985572003E+00    1.8178129433206396E+00
O   -8.1550637398989956E-01   -4.7767032721934424E+00    1.9802885024689418E+00
O    5.0205419076169218E+00   -6.0942875858294743E+00    1.4660661134756094E+00
O    7.2492274885515373E+00    1.8129354099186377E+00   -1.8128522253584145E+00
O    3.1203876848018695E+00   -4.4239875699050790E+00    7.4860345061104161E-01
O    9.9359429786669784E-01    7.1596455976863984E+00   -1.8134518790974905E+00
O   -1.9003071414627588E+00    5.0243816470764964E+00    1.6419449961331094E+00
O    3.3866371801793926E+00    2.1290660233356493E+00   -7.3259785966856272E+00
O    1.5593125833380657E+00    3.6398155070532403E+00    2.8748615173134402E+00
O   -7.5787110932144248E+00    2.2124151227802433E+00    2.9621757503882979E+00
O   -4.3521289891215140E+00   -4.7696740929082466E+00   -3.7018709982461906E+00
O    4.7729989344759645E+00   -4.1996147509255435E+00   -1.7267169008577581E+00
O    1.8974986886015826E+00   -2.3806975697139023E+00   -2.0456279157501260E+00
O    4.9447782734378736E+00    1.4957771515399589E+00   -4.7664582666358797E+00
O    7.1644035178211674E+00   -1.0771559630225436E+00   -5.1118543635879803E+00
O    6.9120210792344103E+00   -2.2224900706066495E+00   -2.5509104293524376E+00
O    6.4198675466753254E+00    1.1567577512282596E+00    2.6272756727655255E+00
O    6.1886582600910591E+00    2.5534129866903159E+00    6.3394629363001327E+00
O    1.2247930817031890E-03    6.8363164368880334E+00    2.8014096163391060E+00
O   -3.3113992896426403E-01   -5.3534021249289747E+00    4.5178672324350782E+00
O    6.5785824793399819E+00   -4.9485360376801406E+00    4.4436516133994601E+00
O    3.3547609913110799E-01   -2.3033081171305940E+00    4.3566645609112555E+00
O   -1.7299372291259607E+00    5.7664600867789533E+00   -5.4417578257697805E+00
O    8.1005749760440660E-01    1.4706119089433241E+00   -7.1621326476604601E+00
O    3.3725703723118121E+00    1.7298831425255190E+00    4.1054294294157501E+00
O    5.3550346877430366E+00   -3.2936222933484709E+00    2.3981490354655319E+00
O    7.6694880071445137E+00   -1.1653066659811484E+00    4.0198363391945779E+00
O   -1.3156679744674200E+00   -5.5896334722225278E+00   -3.5295885811455019E+00
O   -9.0097939314632314E-01   -3.2956006904177446E+00   -4.1063181540405127E+00
O    4.2736301212822649E+00   -5.2714500649234459E+00   -4.3605081011994304E+00
O    4.1988836475942986E+00   -7.3980813162308623E+00   -1.2505687281850735E+00
O    9.0532429375403449E+00    1.4036207044610689E+00    9.8880589761488402E-01
O   -3.7059262640839354E+00    5.8473862456198828E+00   -2.3098996350884566E+00
O   -1.6373990980984670E+00    4.7695964983573846E+00   -1.3797947828123538E+00
O    5.4410293406926744E+00    9.1380884987881961E-01    1.1701720960953481E-02
O   -3.8894720142516706E+00    5.5799915095238770E+00    4.3598134108925457E+00
O   -1.3254492706816903E+00    2.7207724800009845E+00    5.2664959394647326E+00
O    1.8791420324805475E+00   -3.2101931159296576E-01   -9.8144693180417875E-01
O    1.5676429245400578E+00   -1.8108752055948389E+00    6.8367168273862315E+00
O    2.2158875885444074E+00   -4.3568546442073570E+00    3.7805993153849169E+00
O    2.2257314420161478E+00    7.3293157142163228E+00   -1.3229623348706865E+00
O    4.6005777279313431E+00    2.2344803900575982E-01   -5.2693993191905193E+00
O   -3.4525368613100991E+00    8.0597381837439421E+00    2.7158189865179385E+00
O   -3.1216664330813608E+00    4.3642376802548881E+00    1.1572575099136742E+00
O    1.3199364456625400E+00   -3.0451131878972717E+00   -7.7359005181663223E+00
O    1.8920550444673156E+00   -3.3912711248998200E+00   -4.9242087125371636E+00
O    1.3980458550533028E+00   -4.7865663632776068E+00    6.8365202907751144E+00
O   -6.6489514973325403E-01    5.4256761178560851E-03    6.0288902902717387E+00
O   -3.2931088077136450E+00   -6.6622396966007473E+00    4.6067189070436223E+00
O   -1.8913837632639541E+00    7.4998985966249299E+00    6.5683560228299871E-03
O   -5.2779973725365652E+00    6.6587188511961113E+00   -2.4904468640779800E-01
O    5.2752252181416406E+00   -7.0564155205215126E-02    5.0170921238366217E+00
O    2.7178429786284837E+00    6.2473105239583786E+00    1.4020061756745827E+00
O   -7.5408807012143220E-01   -2.5557752539309636E-01   -9.4666746052444282E+00
O    7.3868855129425914E-01   -5.6727985253141382E+00   -6.2502816087292867E+00
O   -3.1287971460628001E+00   -7.3228737491859137E+00   -3.7843926791477789E+00
O   -5.7525528441102844E+00   -1.2313924144763200E+00    3.8611118867844696E+00
O    2.2275595323097934E+00   -7.0841635269907863E+00    1.1479511529771635E+00
O    7.0909885378841420E+00   -8.9862956550881123E-01    1.2419900540098328E+00
O    4.3528975793828995E+00    4.5192090891538950E+00    2.0531811619353064E+00
O   -3.7968977936415329E+00    6.9155494224818579E+00    1.9658420613620431E+00
O   -4.8548082992133876E+00   -1.8069885804911150E+00   -4.4404846656842247E+00
O    1.5654400036870013E+00   -6.9071490460395033E+00    5.2224224319801418E-03
O   -4.0704863774155153E-01   -1.6410663946844231E+00    1.0219649632723918E+01
O   -1.3107573600132665E+00   -4.6092140100445702E+00    5.1694762735335189E+00
O   -4.0303045591337376E+00   -2.1343259318722123E+00    1.6339740289014992E+00
O    2.3129290664295312E+00   -1.5722850972723632E+00   -9.2358705107102101E-01
O   -5.0933346027110264E+00    5.0057324142951600E+00   -5.1875334800145119E+00
O   -4.1995959116732919E+00    1.1593286210997618E+00   -5.4329754995011337E+00
O    1.9683638726417212E+00    1.2255528274714209E+00   -4.0504126212499783E+00
O   -4.7189838902479373E+00    1.5776397436703806E+00    1.2287459854993452E+00
O    7.4841862202488247E+00    5.1039902139548021E-01   -1.9722529619519158E+00
O    4.2085672708714918E+00    5.6691951482312781E+00   -1.8911053870237819E+00
O   -1.9744609593340672E+00   -4.6037288822465392E+00   -6.2512388893254736E+00
O   -4.1947238251922228E+00   -2.7161397664645190E+00   -1.7275009644360895E+00
O    3.1166657201896988E+00   -3.5364907267519392E+00    4.5430536473704750E+00
O   -2.3618213331456828E-01    6.7038368078485389E-01   -6.5091274328905540E+00
O   -4.2714681770207079E+00    4.1508777396439300E-01   -2.5438919975362770E+00
O    2.9543573175775855E+00    3.8694829862465294E+00   -3.4846586673773827E-01
O    1.1438881174978868E+00    2.3827043214259569E+00    2.6288565691446011E+00
O   -2.8011660632808839E+00    4.6110298847499722E+00    4.5329882746603749E+00
O   -5.0945710310096919E+00    1.2254174711375412E+00    6.1692618690360241E+00
O    2.3789775844998076E+00   -5.1955021801389476E+00   -2.3079285837312371E+00
O   -1.5620922471329701E+00   -6.8305995380721978E+00   -5.7341506651904617E-01
O   -6.0137296458259968E+00   -3.7864641052393755E+00   -7.0793045044743014E-02
O    5.6685175370793948E+00    6.7413120845256520E+00    4.9917984634434265E-01
O    2.9679728985594487E+00    3.6176712012575281E+00   -4.3701828376651486E+00
O    3.5538661957346345E+00    4.7694108941741451E+00   -4.8606993031627210E+00
O   -1.7322888528353144E+00    3.3056222553386633E-01    7.0002625427157410E+00
O   -5.1816762031242245E+00    8.1823865048645894E-01    2.2154223692045507E+00
O   -1.9489488945247719E+00   -7.6629654841738422E+00    2.3783645660001111E+00
O   -8.2312732165461333E-01   -2.5511980677811694E+00    7.2471462137993399E+00
O   -6.4291963384037727E+00   -9.9083761619677624E-01    2.7251293679337727E+00
O   -1.5639948662014804E+00   -3.6976998038873430E+00    2.3152144607806586E+00
O   -2.4750666840363706E+00    3.5340018313170343E+00   -4.0268498948659142E+00
O   -6.9893891773451635E+00    2.4864591487404905E-01   -5.0326811550969266E+00
O    3.1161665585065141E+00    4.2826554734575559E+00    5.3456980788630517E+00
O    4.3714575258049839E+00    4.5246688438498177E+00    4.7786393785324943E+00
O   -5.0161144004201641E-01   -1.9764293019794117E+00   -6.4135653961503216E+00
O   -3.3366416421523576E-01   -4.5270276861574317E+00   -3.7070076457702061E+00
O   -6.4978052229808752E+00   -1.2515510341412754E+00   -2.5493662842628355E+00
O    5.7539444830684996E+00   -4.8495336302399608E+00   -9.0777601288442267E-01
O   -1.3207983732938846E+00    7.0945119026261017E+00   -2.9593398010727032E+00
O    2.2266706442716333E+00   -5.7605188569734855E-01   -6.3379946537352128E+00
O    2.2196536231838433E+00   -6.4663773223947663E-01   -9.1304385767063074E+00
O   -5.5867249166236332E+00    2.6313510355022758E+00   -3.7863416370184564E+00
O    4.6061240870429758E+00   -2.5551525194568323E+00   -4.2808887403044826E+00
O   -3.1215814418586598E+00    9.0656072641110141E-01    4.2779018763163519E+00
O   -7.7433702232095261E+00    4.0258642166213787E-01    5.0239183792593760E+00
O    4.0307531602479756E+00   -6.4165464834467771E+00    3.9583312727947417E+00
O    4.7732276724032543E+00   -4.9219618994070824E-01   -2.3785973866081234E+00
O   -8.6422241538686624E+00    2.8019138053588297E+00   -1.3969222096521294E+00
O    3.5379991365164050E+00    1.4866255598352620E+00    6.7495992020950197E+00
O    8.2388703429298571E-01    6.5046253571833168E-01    8.3837748806112895E+00
O   -1.8845261999952205E+00    7.3993356206067604E+00    5.0188082860815717E+00
O   -5.1003397016841792E+00    2.8119329290493300E+00    4.1927651626533766E+00
O    5.7639909075515332E+00   -4.1057790012998350E+00    5.0299320479599752E+00
O   -3.5336995291350206E+00   -8.4048529951756414E+00    2.4551476873399206E-01
K   -3.9032912727390117E+00    2.8293223132364145E+00   -1.5577992008035988E+00
K   -1.6316811010455725E+00    2.4771630165596306E+00    2.6234021734383317E+00
K    3.3749569037242334E-04   -4.8375688162360477E+00   -1.0575932983027811E+00
K    1.2870635070727414E+00   -2.7762835424922865E+00    1.8396438065397622E+00
K    5.2787673160411828E+00   -2.1255100315336732E+00   -1.6707143938992874E-01
K    3.9206867515610189E-01    5.7145815435461094E+00    2.9848229128745152E-01
K   -3.2180442751538627E+00   -1.9564006088944159E+00   -6.4337868977597292E+00
K   -2.4954196632149510E+00   -1.6519211997211263E+00    4.8406768405921552E+00
K    4.3224705320358829E+00    2.2133183725534353E+00   -2.1741780866683764E+00
K    3.4955609188265124E+00    1.7121393533005196E+00    1.4962189556041456E+00
K    6.0362422559268858E-01   -1.0271742827210479E+00   -4.0030171666544447E+00
K    2.7447646341555139E+00   -7.3818931351233263E-01    4.8152702721814808E+00
K    2.1972426701277190E-01    2.4964155735201734E+00   -2.3459059074178956E+00
K    1.0998327622021686E+00    2.2827508320379164E+00    5.8150903321747460E+00
K   -5.4359623756523545E+00   -5.9709741590263554E-01   -2.2763723886657261E-01
K   -3.9850139278331933E+00   -5.8190665130315953E+00   -8.7556928060997208E-01
K    3.3948542854979111E+00    1.0705528867668230E+00    9.3023211503060814E+00
K    3.9174970703284995E+00   -2.6038803896439791E+00   -6.8831931032580203E+00
K   -6.3861324979200562E+00    5.2119550138304813E+00   -2.7847805806427091E+00
K   -5.7895786022141698E+00    4.8292015002669171E+00    2.4879935081587763E+00
K   -3.7239688682605747E+00    6.3648863580320194E+00   -6.8772564465858554E+00
K   -3.0214061636951981E+00    5.7627279388443657E+00    6.8953847207277388E+00
K    2.8189034042580232E+00   -7.5017835499298835E+00   -3.6718250541683650E+00
K    1.5166865869048338E+00   -7.3596192436961525E+00    3.8291376115067393E+00
K   -9.3316225324891222E-01    3.3406389202856870E+00   -6.3675828546053292E+00
K   -1.9508855579821529E+00    1.8475079178258589E+00    9.4169192689028787E+00
K    1.0175635502026736E+01   -4.2520756880217120E-01    3.1820812234144076E+00
K    7.0058341606057448E+00   -4.6953108129534211E+00   -3.2755821148475399E+00
     &END COORD
     &KIND O
       BASIS_SET DZVP-MOLOPT-SR-GTH
       POTENTIAL GTH-PBE-q6
       &POTENTIAL
2 4
0.2445543000000000E+00 2 -0.1666721480000000E+02  0.2487311320000000E+01
2
0.2209559200000000E+00 1  0.1833745811000000E+02
0.2113324700000000E+00 0
       &END POTENTIAL
     &END KIND
     &KIND Li
       BASIS_SET DZVP-MOLOPT-SR-GTH
       POTENTIAL GTH-PBE-q3
     &END KIND
     &KIND H
       BASIS_SET DZVP-MOLOPT-SR-GTH
       POTENTIAL GTH-PBE
     &END KIND
     &KIND U
       BASIS_SET DZVP-MOLOPT-SR-GTH-q14
       POTENTIAL GTH-PBE-q14
       &POTENTIAL
4 6 1 3
0.5305208699580800E+00 2  0.4839904058263892E+02 -0.6826283991133930E+01
4
0.5505696454489500E+00 2  0.3820354170479540E+01 -0.4770194681993150E+01
0.3333300841057730E+01
0.5019254765269400E+00 2  0.1318787585513343E+02 -0.9538875627453191E+01
0.7101017829351740E+01
0.6682951675764800E+00 1  0.1009200813099790E+01
0.3243063410749400E+00 1 -0.1820283810625575E+02
       &END POTENTIAL
     &END KIND
     &KIND K
       BASIS_SET DZVP-MOLOPT-SR-GTH-q9
       POTENTIAL GTH-PBE-q9
       &POTENTIAL
3 6
0.4000000000000000E+00 2 -0.3363551840000000E+01 -0.1086529750000000E+01
2
0.3053177200000000E+00 2  0.1785062321000000E+02 -0.5622648700000000E+01
0.7258808260000000E+01
0.3164843200000000E+00 2  0.7333780210000000E+01 -0.2460945050000000E+01
0.2911829450000000E+01
       &END POTENTIAL
     &END KIND
     &TOPOLOGY
       COORD_FILE_NAME U28_0.xyz
       COORD_FILE_FORMAT  XYZ
       NUMBER_OF_ATOMS  196
       CONN_FILE_FORMAT  OFF
       MULTIPLE_UNIT_CELL  1 1 1
     &END TOPOLOGY
   &END SUBSYS
 &END FORCE_EVAL
