 # Version information for this restart file 
 # current date 2023-12-07 07:10:04.467
 # current working dir /WORK/junli_work/libin/1_U28/2_try_full
 # Program compiled at                              Sun Aug 13 14:10:33 CST 2023
 # Program compiled on                                                   ibcln01
 # Program compiled for                                                    local
 # Source code revision number                                       git:d8d7100
 &GLOBAL
   PRINT_LEVEL  LOW
   PROJECT_NAME U28
   RUN_TYPE  GEO_OPT
 &END GLOBAL
 &MOTION
   &GEO_OPT
     OPTIMIZER  BFGS
     MAX_ITER  400
     STEP_START_VAL  271
     &BFGS
       TRUST_RADIUS     2.5000000000000000E-01
     &END BFGS
   &END GEO_OPT
   &PRINT
     &TRAJECTORY  SILENT
       FORMAT  XMOL
       &EACH
         GEO_OPT  1
       &END EACH
     &END TRAJECTORY
     &CELL  ON
     &END CELL
     &RESTART  SILENT
       BACKUP_COPIES  0
       &EACH
         GEO_OPT  1
       &END EACH
     &END RESTART
     &RESTART_HISTORY  OFF
     &END RESTART_HISTORY
   &END PRINT
 &END MOTION
 &FORCE_EVAL
   METHOD  QS
   STRESS_TENSOR  ANALYTICAL
   &DFT
     BASIS_SET_FILE_NAME BASIS_MOLOPT
     POTENTIAL_FILE_NAME GTH_POTENTIALS
     MULTIPLICITY  1
     CHARGE  0
     &SCF
       MAX_SCF  50
       EPS_SCF     1.0000000000000001E-05
       SCF_GUESS  RESTART
       &OT  T
         MINIMIZER  DIIS
         PRECONDITIONER  FULL_SINGLE
       &END OT
       &OUTER_SCF  T
         EPS_SCF     1.0000000000000001E-05
         MAX_SCF  10
       &END OUTER_SCF
       &PRINT
         &RESTART  ON
         &END RESTART
       &END PRINT
     &END SCF
     &QS
       EPS_DEFAULT     1.0000000000000000E-10
       EXTRAPOLATION  ASPC
       METHOD  GPW
     &END QS
     &MGRID
       CUTOFF     4.1000000000000000E+02
     &END MGRID
     &XC
       DENSITY_CUTOFF     1.0000000000000000E-10
       GRADIENT_CUTOFF     1.0000000000000000E-10
       TAU_CUTOFF     1.0000000000000000E-10
       &XC_FUNCTIONAL  NO_SHORTCUT
         &PBE  T
         &END PBE
       &END XC_FUNCTIONAL
       &VDW_POTENTIAL
         POTENTIAL_TYPE  PAIR_POTENTIAL
         &PAIR_POTENTIAL
           R_CUTOFF     1.5000000000000004E+01
           TYPE  DFTD3(BJ)
           PARAMETER_FILE_NAME dftd3.dat
           REFERENCE_FUNCTIONAL PBE
         &END PAIR_POTENTIAL
       &END VDW_POTENTIAL
     &END XC
     &POISSON
       PERIODIC  XYZ
     &END POISSON
   &END DFT
   &SUBSYS
     &CELL
       A     2.0000000000000007E+01    0.0000000000000000E+00    0.0000000000000000E+00
       B     0.0000000000000000E+00    2.0000000000000007E+01    0.0000000000000000E+00
       C     0.0000000000000000E+00    0.0000000000000000E+00    2.0000000000000007E+01
       MULTIPLE_UNIT_CELL  1 1 1
     &END CELL
     &COORD
U    2.2661295206590863E+00    5.2630759761477321E+00   -3.0953484755319827E+00
U   -1.9085949507290403E+00    5.8715282624653229E+00   -3.5603712587646776E+00
U    3.8981892753621961E+00    2.1989557422956048E+00    5.6764561504157687E+00
U    3.5999812390631991E-01   -8.0958519183043059E-02   -6.6585729431760932E+00
U    4.7434008675032946E-01   -3.3654326809420820E+00   -5.4714045788882171E+00
U   -2.1653403249086738E+00   -5.5283679841345101E+00    4.3398699319641656E+00
U    1.0304508090960852E-01   -7.5173467122952147E+00   -4.1287051733529621E-03
U    6.4962519647914938E+00    1.8919134520923584E+00   -6.5398165372820816E-01
U   -3.8592781012161721E+00    2.2939369270176928E+00   -6.0862372585239441E+00
U    2.5694759810593828E+00    6.0699284968841196E+00    3.4377539558567074E+00
U   -1.8224201925866483E+00    5.7068840762158155E+00    3.3651408765392259E+00
U   -3.2627388606219521E+00   -5.1041350541813797E+00   -3.2541150206454823E+00
U   -6.5146417252283850E-01    1.6658624082172099E-01    7.4298770942752155E+00
U   -6.2961289969265213E+00   -2.7928638002533352E+00    2.0769523018332570E+00
U    6.2123793098404070E+00    1.0524742612807708E-01   -3.6286788740585116E+00
U   -3.7323566670397708E+00    6.0064676895518447E+00    1.0237624077273817E-01
U   -6.1492583548627149E+00    3.5246473706015818E-01   -4.2491657908234810E+00
U   -3.0394606726339730E+00    2.1082417174364867E+00    5.8736775463334370E+00
U   -5.7613294531117649E+00   -2.7934224073672387E+00   -2.2554282257086853E+00
U    3.3199528545221071E+00   -6.0570680643703581E+00   -2.6889676206769292E-01
U    4.4662944050337829E+00   -3.6700569377161050E+00    3.2073386722483375E+00
U    3.5978431618898634E+00    2.5200350183034028E+00   -5.4680808408195629E+00
U    4.3425128413578049E+00    5.7265897671206822E+00   -3.5420588773147654E-01
U   -6.6996086073940049E+00    3.3787082723059045E+00    3.9936946786666827E-01
U    6.0239283116587368E+00   -3.2143526793365296E-01    3.7193378669707848E+00
U   -6.2554470848308252E+00    1.1353829519280116E+00    3.4307779785528796E+00
U    4.2453614763651553E+00   -3.5858930402323259E+00   -3.1756946184512862E+00
U    1.5469780182678292E-01   -3.7160382952556961E+00    6.2382913070780530E+00
O    5.1067429327758207E+00    4.7834706384453174E+00    1.6554651237719147E+00
O    2.7234313609251060E+00    5.5194460948759998E+00   -5.1865373457890209E+00
O   -4.3667800135110060E+00    3.5502075083335853E+00   -7.4255107186617488E+00
O   -5.3422888984472463E+00    4.8535652103263054E+00    3.0467902194445302E+00
O    4.6891369025435052E+00   -7.0767116400117513E-02    2.4664598026011770E+00
O   -1.7118763408176287E+00   -7.9156757029546014E+00    1.9857005851840257E+00
O   -5.2814940325999293E+00   -4.4463904371579082E+00    3.7901601715255149E+00
O   -6.4240640682755208E+00   -2.7902148943068226E+00   -6.9179475419895456E-02
O    1.9775230802351911E+00    4.2838860961769534E+00   -5.1842400015125705E+00
O   -6.9060086558303073E+00    2.2258033441611600E+00   -2.5657224028739725E+00
O    5.7581091039354764E+00    3.7093537292837571E+00   -4.9329711735128468E-01
O   -3.7904418310112979E+00    3.1228173716652390E+00    7.3242670673741896E+00
O    3.0449458768796598E+00    7.4885040814669273E+00    4.4428910449042789E+00
O   -5.6674651643094904E+00    5.0990450046374107E+00   -4.1903195528584736E-01
O   -4.3564334537760567E+00   -3.5496435209018551E+00   -4.0236831044286081E+00
O   -5.7719941090200888E-01   -8.8136864311729131E+00    1.8908795137357741E+00
O   -7.9831435839504836E+00   -3.4521519696687846E+00    2.3853307445308971E+00
O    1.2274632163976047E+00    3.7803251385563770E+00   -2.5503750362910642E+00
O   -7.5788926578483808E+00    1.9780395658136618E+00   -1.4802425794261107E+00
O    4.0111469883483863E-01    5.9358207302505539E+00    4.2789038808243065E+00
O   -7.2443722444681899E+00    1.7260240324622398E+00    1.5646201254674661E+00
O   -7.3290251042002010E+00   -3.4636626923216753E+00   -2.8879788072005277E+00
O   -3.8700755066902377E+00   -4.5298225241669323E+00    3.2829313377923568E+00
O   -8.3255012358784919E-01   -5.5068124114704053E+00   -1.5300888315497556E-02
O    4.9273800334103042E+00   -5.0230844164591568E+00    1.0692966137532611E+00
O    5.5955037842100319E+00    1.7249516115413999E+00   -2.8028363209326663E+00
O    3.2927840481972646E+00   -2.7177097790942923E+00    2.1247190118803201E+00
O    4.1552300904118467E-01    6.2509768447869716E+00   -3.9731204441706476E+00
O   -2.8104015773804929E+00    4.3801652109432423E+00   -7.6274284398023057E-02
O    4.4399076322631439E+00    3.4536499975247250E+00   -6.7452155713847706E+00
O    2.1394986282857809E+00    4.6916440403220996E+00    2.3012812113289738E+00
O   -5.5189415232872800E+00    3.5328423984593877E+00    2.5473028146238907E+00
O   -3.9503913169852090E+00   -6.5105949405548795E+00   -4.1903796879707338E+00
O    4.2755640421941896E+00   -5.6740545154558504E+00   -2.2350454236440260E+00
O    3.0528567253967065E+00   -3.0419629279505140E+00   -1.2266930597442416E+00
O    6.4941782708430624E+00    1.4754921862944492E+00   -5.3556640794859458E+00
O    7.2462843560720671E+00   -1.2433044677736280E+00   -4.3587776972793373E+00
O    5.9130624540948729E+00   -3.3692734461692799E+00   -2.3017407510846715E+00
O    6.8387313795598210E+00    1.4763838432540448E+00    1.5528692758788154E+00
O    4.4442893777204642E+00    2.7181426490707628E+00    7.3211586959434181E+00
O    3.2878476693445696E-01    6.8262100084450559E+00    3.1302191550664102E+00
O   -1.3159392195584838E+00   -4.7804602798193159E+00    2.8809940775362985E+00
O    5.5120210993778347E+00   -4.6898245550850071E+00    4.2866061273139469E+00
O    5.8173744001632899E-01   -2.2076078983900764E+00    4.3737647431079445E+00
O   -1.8889767419482477E+00    4.6008802573372805E+00   -5.5255017191308360E+00
O   -1.7105173121036574E+00    1.2227215780663490E+00   -6.5752265312514337E+00
O    5.5857884015956936E+00    1.7116606842180524E+00    4.5328387058339592E+00
O    6.5004466142081530E+00   -2.3134423242982001E+00    2.4680536211606205E+00
O    7.4176714376867103E+00   -6.5292467457696757E-01    4.8528727087252603E+00
O   -9.0447933905189770E-01   -6.4959499163376480E+00   -5.4338712491108776E+00
O   -8.0879873077100636E-02   -2.5533252921763445E+00   -3.8735346065665315E+00
O    2.4626863847870002E+00   -3.8778801440146129E+00   -4.0417083804990659E+00
O    4.0298825439487969E+00   -7.7366602773478377E+00   -1.5224561541942941E-01
O    7.9941770399527536E+00    2.0593612388327647E+00    1.0694608168161879E+00
O   -3.4571480534428525E+00    6.2567077061647129E+00   -2.1254130466718033E+00
O   -1.4902978583584632E+00    4.2881150580658414E+00   -2.7048236679959419E+00
O    4.8494029814024140E+00    9.8826082623881140E-01   -2.4571813786343163E-01
O   -1.8936120279555135E+00    4.2878864704865984E+00    5.3447423180375946E+00
O   -1.2323483148371575E+00    2.0532646475287986E+00    7.4057665077860646E+00
O    8.4735639702013726E-02    2.4811374002330730E-01   -4.8455736513746146E+00
O   -1.6336656083520088E-02   -1.8002733372030495E+00    7.2428039301206439E+00
O    2.2159170370110615E+00   -3.7887977013238245E+00    4.6951065393575284E+00
O    3.3735301894014054E+00    6.8249711951038785E+00   -1.6497573298135724E+00
O    5.2674521754656203E+00    7.4338142924705120E-01   -5.5984636258643281E+00
O   -4.1876334233901478E+00    5.4347795107880676E+00    2.4615892327896254E+00
O   -1.1561396185882051E+00    4.2754156641565446E+00    2.3873507387894728E+00
O    1.7164089458837104E+00   -1.7282038820389756E+00   -6.0074675995969766E+00
O    5.1104316737502575E+00   -4.1159714399819434E+00   -4.8647722274575811E+00
O   -1.6277769974806378E-01   -5.5884810153688251E+00    5.4323037709820632E+00
O    8.2011434112475357E-01    5.7670794029196493E-01    5.6867053986063851E+00
O   -3.0432183648126361E+00   -6.2504192737147193E+00    5.7538072954056156E+00
O    3.2335550981882161E-01    6.5100087773184576E+00   -2.5410347006379617E+00
O   -4.5983817312440571E+00    7.6648216564748566E+00    1.6825479770720025E-01
O    4.5488646688810563E+00    3.4819921133715447E-04    6.4247225755621384E+00
O    3.4554369595246945E+00    6.9881972057113320E+00    1.2361474868409528E+00
O    3.3405536959690108E-01   -3.2100252792075840E-01   -8.4758058416777313E+00
O    1.1527354963720693E+00   -4.4467418188350587E+00   -6.8293480001361937E+00
O   -1.7287799166334592E+00   -6.7485626310002615E+00   -6.3418014961291709E+00
O   -5.5197602482101527E+00   -3.2062874971783399E+00    4.3484025966220248E+00
O    1.6426306637175825E+00   -6.7573853983484469E+00   -1.3130689471540224E+00
O    7.3204824834069315E+00   -1.3130087565423050E+00    1.9721331313154058E+00
O    4.7878726398345890E+00    5.2011210521887605E+00    2.8771033211549231E+00
O   -2.2118022888117435E+00    6.7420792231536009E+00    1.4766019958750796E+00
O   -5.4335810425141853E+00   -1.4045880501929202E+00   -4.4457631299261253E+00
O    1.3998070700911220E+00   -6.6589646360698858E+00    1.2275656868949780E+00
O   -1.4794553654541609E+00   -8.2873692547833055E-02    9.1344027168942059E+00
O   -1.6405954680465229E+00   -3.5385709150843145E+00    5.5184569465583175E+00
O   -4.5562388489274381E+00   -2.1504615888962015E+00    1.8092418903378782E+00
O    2.3881044648545910E+00   -4.1235104548967501E+00   -5.0123569761908915E-01
O   -3.2251041592947018E+00    4.3681870171561510E+00   -4.9273803453447558E+00
O   -4.6929273874867183E+00    4.9758365097429708E-01   -6.1707139028760425E+00
O    1.2410415562735746E+00    1.8044401588159411E+00    9.0941850699950688E-01
O   -5.1732368798666259E+00    2.3927820934682091E+00   -8.6790254150003326E-02
O    7.2406048343276934E+00    2.4971426747606126E-01   -1.5627087043041543E+00
O    4.5251581087063464E+00    5.0253860663790766E+00   -2.8818363334040367E+00
O   -1.1472313375145706E+00   -5.0916537775852255E+00   -4.6874400637982996E+00
O   -4.2638461433249120E+00   -1.8981609661248944E+00   -1.6382793566577407E+00
O    2.5511031129823833E+00   -4.9316014878517382E+00    4.0274677653583861E+00
O   -2.4687630787690820E+00    1.6465970872545208E+00   -7.7428928882136967E+00
O   -4.1016757960135442E+00    6.6756338271006799E-01   -3.2165079739492075E+00
O    2.9526525021269991E+00    4.4505532050783376E+00   -6.5629042037914664E-01
O    2.9616163696407609E+00    1.8060363400446200E+00    4.1141277682062700E+00
O   -3.1360964241819347E+00    4.1083929336799443E+00    4.5998178417838052E+00
O   -4.8521873007412042E+00    1.4877572416424065E+00    5.1817886171770393E+00
O    2.8963529940394057E+00   -7.1610993204912097E+00   -3.9366094352103751E+00
O   -4.1861375957223462E-01   -8.8961598314718309E+00   -1.0690445108616387E+00
O   -4.7640015013314958E+00   -4.7686285666766182E+00   -1.8046842767564657E+00
O    4.7807382408604155E+00    7.4125847060766681E+00    8.9942369905854280E-01
O    2.7960662113228594E+00    1.5631593698789170E+00   -4.1158122062033495E+00
O    3.9517330014988801E+00    3.7780925178930729E+00   -3.2924410249116902E+00
O   -2.5379776152686260E+00    8.7108998754886521E-02    6.4316498213824884E+00
O   -4.6936300255492860E+00    6.6982477716764122E-01    2.5419241867734130E+00
O   -1.8923790662995756E+00   -7.5718740203757013E+00    3.3768229760248762E+00
O    1.5658586886072716E+00   -4.0329094967135566E+00    7.3960761113337377E+00
O   -6.9156364134793966E+00   -9.0269687146825905E-01    2.8843623730368768E+00
O   -2.5089888606265415E-01   -1.7441777614107563E+00    3.4444518373510906E+00
O   -3.1223113317958786E+00    1.2427982631372565E+00   -4.0296961298536189E+00
O   -7.7329407089573330E+00    9.0662244835672701E-01   -5.0224958043058221E+00
O    3.8681333281124815E+00    4.6012105884507504E+00    4.8589666458750127E+00
O    2.5409751446351350E+00    4.4397706075567518E+00    5.1998900765392042E+00
O   -8.1891445861934509E-01   -1.9783206518101826E+00   -6.4957212113572709E+00
O   -2.2085797494840786E+00   -3.8558246159515437E+00   -2.3737681833176434E+00
O   -6.5871346729062097E+00   -4.8787597890970119E-01   -2.4697841439647359E+00
O    3.8645446837164039E+00   -7.2426599113988575E+00   -3.1391048176554484E+00
O   -2.3948775844866619E+00    7.3175457063032008E+00   -4.6044224768073168E+00
O    1.6594572911767678E+00    1.9816956758002156E+00   -6.6815159310014627E+00
O    2.6312381713340556E+00    9.1244567461390247E-01   -6.8983160562949006E+00
O   -5.4315250447969339E+00    2.4640975952408439E+00   -4.7705087328736946E+00
O    4.3589469824046079E+00   -1.3261372285877329E+00   -3.9940998529540783E+00
O   -1.1616406919719329E+00    1.6443382919209357E+00    4.6206745081084764E+00
O   -7.7406455275880504E+00    1.4758358668515810E+00    4.4385622301239147E+00
O    3.8787566672935014E+00   -5.5895430001941770E+00    1.8986836640192344E+00
O    4.3652458871914313E+00   -9.8731087969703857E-01   -2.5546179812781231E+00
O   -8.1486723639038949E+00    4.4352727179081404E+00    7.4239823423164397E-01
O    3.1996104216135159E+00   -4.1194930542518384E-03    6.3414840772720895E+00
O    1.3955221348338489E+00    1.3181728529756993E+00    6.6734871555632749E+00
O   -2.5539240034684165E+00    7.0839791373402106E+00    4.3685508757144662E+00
O   -2.3166651488070644E+00    1.2313008006016117E+00    3.9428139665703239E+00
O    4.6923425028120098E+00   -1.9766151626760931E+00    4.4476821949133001E+00
O   -1.4793933002159076E+00   -6.3352127540660499E+00   -1.0604557154529231E+00
K   -4.0855793517414405E+00    3.2830418091684348E+00   -2.3458254572776203E+00
K   -2.9766996524774543E+00    2.3959956969615206E+00    1.6186510733458859E+00
K    3.7611216788595203E-01   -4.6025611389588974E+00   -2.2330365144036941E+00
K    8.9531630210092927E-01   -3.9150947818440351E+00    1.8415102222366528E+00
K    5.2572035645939339E+00   -1.7195705125110545E+00    6.2689294879136976E-03
K    8.7189056200036141E-02    4.2022874877257941E+00   -4.3547547280677404E-02
K   -2.5768185009367262E+00   -1.4401410883145660E+00   -4.1342358242113857E+00
K   -3.1484020822242615E+00   -1.5026423735109022E+00    4.1645337021968727E+00
K    2.6929591150406580E+00    1.8665333239931541E+00   -1.3917275142064474E+00
K    3.8476853752600291E+00    2.4428487701932240E+00    1.7763210032614967E+00
K    1.7907816832504473E+00   -8.3210140535538590E-01   -3.2065966838591895E+00
K    2.0626701172595370E+00   -4.0916112549083816E-01    2.9251295085216373E+00
K   -2.3866981238325172E-01    2.7827628900881014E+00   -4.5174314812555076E+00
K    6.8699138636061219E-01    2.7760986001336976E+00    3.3775389412944761E+00
K   -5.5354628021979906E+00   -1.1759651236743228E-01   -6.4444568675536681E-03
K   -3.1269628013064059E+00   -4.0216622360669927E+00    3.3565303245480105E-01
K    3.9367355144583955E+00   -2.5914970084851467E+00    6.8569868888867544E+00
K    4.1621305565161979E+00   -1.4196913992703259E+00   -6.6923592471185218E+00
K   -6.0680687160950493E+00    7.2394788058717090E+00   -2.0094460133842200E+00
K   -2.5182033559512886E+00    9.2782504067016944E+00    2.0495045249889254E+00
K   -3.5091108974691223E+00    6.0775110907114991E+00   -6.8893406953730336E+00
K   -4.2294445160993961E+00    5.6958761994286844E+00    6.2509323682037472E+00
K    3.4123186200736417E+00   -5.6740577844574656E+00   -6.1375109750258989E+00
K    1.2279626941406703E+00   -7.4314451707019877E+00    3.8374372291214427E+00
K   -2.5961832678319143E+00    2.4648619305914465E+00   -1.0260360354315013E+01
K   -2.4034733072174821E+00   -1.1377265980691096E+00    1.1435407315175304E+01
K    1.0344318459933705E+01   -9.3517262575286397E-01    3.1811767924527032E+00
K    7.8045049538741429E+00   -3.7683463495398235E+00   -4.0010434460396462E+00
     &END COORD
     &KIND O
       BASIS_SET DZVP-MOLOPT-SR-GTH
       POTENTIAL GTH-PBE-q6
       &POTENTIAL
2 4
0.2445543000000000E+00 2 -0.1666721480000000E+02  0.2487311320000000E+01
2
0.2209559200000000E+00 1  0.1833745811000000E+02
0.2113324700000000E+00 0
       &END POTENTIAL
     &END KIND
     &KIND Li
       BASIS_SET DZVP-MOLOPT-SR-GTH
       POTENTIAL GTH-PBE-q3
     &END KIND
     &KIND H
       BASIS_SET DZVP-MOLOPT-SR-GTH
       POTENTIAL GTH-PBE
     &END KIND
     &KIND U
       BASIS_SET DZVP-MOLOPT-SR-GTH-q14
       POTENTIAL GTH-PBE-q14
       &POTENTIAL
4 6 1 3
0.5305208699580800E+00 2  0.4839904058263892E+02 -0.6826283991133930E+01
4
0.5505696454489500E+00 2  0.3820354170479540E+01 -0.4770194681993150E+01
0.3333300841057730E+01
0.5019254765269400E+00 2  0.1318787585513343E+02 -0.9538875627453191E+01
0.7101017829351740E+01
0.6682951675764800E+00 1  0.1009200813099790E+01
0.3243063410749400E+00 1 -0.1820283810625575E+02
       &END POTENTIAL
     &END KIND
     &KIND K
       BASIS_SET DZVP-MOLOPT-SR-GTH-q9
       POTENTIAL GTH-PBE-q9
       &POTENTIAL
3 6
0.4000000000000000E+00 2 -0.3363551840000000E+01 -0.1086529750000000E+01
2
0.3053177200000000E+00 2  0.1785062321000000E+02 -0.5622648700000000E+01
0.7258808260000000E+01
0.3164843200000000E+00 2  0.7333780210000000E+01 -0.2460945050000000E+01
0.2911829450000000E+01
       &END POTENTIAL
     &END KIND
     &TOPOLOGY
       COORD_FILE_NAME U28_9.xyz
       COORD_FILE_FORMAT  XYZ
       NUMBER_OF_ATOMS  196
       CONN_FILE_FORMAT  OFF
       MULTIPLE_UNIT_CELL  1 1 1
     &END TOPOLOGY
   &END SUBSYS
 &END FORCE_EVAL
